# 0 [Electrical conductivity in SI units, i.e. in 1/Ohm/m]
# Mu(eV) T(K) N(#carriers) sigma_xx sigma_xy sigma_xz sigma_yy sigma_yz sigma_zz
# T(K) = 300.000 Npoints =     301 V(cm^3) =  1.145E-21
  -5.500   300.000    2.926E+00    1.7866823E+07   -1.4809758E+03    1.2030509E-03    1.7865113E+07   -2.0837270E-03    1.9252004E+07
  -5.490   300.000    2.881E+00    1.7775469E+07   -1.3023312E+03    1.3389962E-03    1.7773965E+07   -2.3191916E-03    1.9135224E+07
  -5.480   300.000    2.836E+00    1.7669117E+07   -1.1151772E+03    1.6588953E-03    1.7667829E+07   -2.8732737E-03    1.9010811E+07
  -5.470   300.000    2.791E+00    1.7543700E+07   -9.2724519E+02    2.1757054E-03    1.7542630E+07   -3.7684155E-03    1.8881827E+07
  -5.460   300.000    2.746E+00    1.7398317E+07   -7.4737927E+02    2.8505593E-03    1.7397454E+07   -4.9372970E-03    1.8752632E+07
  -5.450   300.000    2.702E+00    1.7236172E+07   -5.8394407E+02    3.6152864E-03    1.7235497E+07   -6.2618436E-03    1.8625195E+07
  -5.440   300.000    2.658E+00    1.7063493E+07   -4.4307030E+02    4.3916890E-03    1.7062982E+07   -7.6066125E-03    1.8496694E+07
  -5.430   300.000    2.613E+00    1.6887236E+07   -3.2756997E+02    5.0992517E-03    1.6886858E+07   -8.8321473E-03    1.8361302E+07
  -5.420   300.000    2.569E+00    1.6713080E+07   -2.3698269E+02    5.6601255E-03    1.6712806E+07   -9.8036097E-03    1.8214508E+07
  -5.410   300.000    2.525E+00    1.6544307E+07   -1.6851686E+02    6.0102469E-03    1.6544112E+07   -1.0410038E-02    1.8055501E+07
  -5.400   300.000    2.481E+00    1.6381383E+07   -1.1826637E+02    6.1124480E-03    1.6381246E+07   -1.0587056E-02    1.7885992E+07
  -5.390   300.000    2.438E+00    1.6222503E+07   -8.2198514E+01    5.9620627E-03    1.6222408E+07   -1.0326582E-02    1.7707980E+07
  -5.380   300.000    2.394E+00    1.6065401E+07   -5.6732108E+01    5.5837824E-03    1.6065336E+07   -9.6713820E-03    1.7523154E+07
  -5.370   300.000    2.351E+00    1.5909540E+07   -3.8962182E+01    5.0257451E-03    1.5909495E+07   -8.7048335E-03    1.7333713E+07
  -5.360   300.000    2.308E+00    1.5757102E+07   -2.6665778E+01    4.3539599E-03    1.5757071E+07   -7.5412679E-03    1.7142757E+07
  -5.350   300.000    2.265E+00    1.5612194E+07   -1.8206384E+01    3.6451897E-03    1.5612173E+07   -6.3136425E-03    1.6953449E+07
  -5.340   300.000    2.223E+00    1.5479180E+07   -1.2410121E+01    2.9783796E-03    1.5479165E+07   -5.1586941E-03    1.6768029E+07
  -5.330   300.000    2.182E+00    1.5361572E+07   -8.4496105E+00    2.4263965E-03    1.5361562E+07   -4.2026317E-03    1.6587964E+07
  -5.320   300.000    2.141E+00    1.5261995E+07   -5.7485898E+00    2.0433175E-03    1.5261989E+07   -3.5391195E-03    1.6414973E+07
  -5.310   300.000    2.101E+00    1.5182117E+07   -3.9089193E+00    1.8438391E-03    1.5182113E+07   -3.1936130E-03    1.6251012E+07
  -5.300   300.000    2.062E+00    1.5121165E+07   -2.6570268E+00    1.7896237E-03    1.5121162E+07   -3.0997092E-03    1.6096362E+07
  -5.290   300.000    2.023E+00    1.5073742E+07   -1.8056305E+00    1.8040345E-03    1.5073740E+07   -3.1246692E-03    1.5947859E+07
  -5.280   300.000    1.984E+00    1.5029685E+07   -1.2268445E+00    1.8119819E-03    1.5029684E+07   -3.1384341E-03    1.5800030E+07
  -5.270   300.000    1.945E+00    1.4977335E+07   -8.3349124E-01    1.7744618E-03    1.4977334E+07   -3.0734469E-03    1.5648561E+07
  -5.260   300.000    1.907E+00    1.4907666E+07   -5.6621211E-01    1.6932009E-03    1.4907665E+07   -2.9326983E-03    1.5492330E+07
  -5.250   300.000    1.868E+00    1.4815536E+07   -3.8462240E-01    1.5898706E-03    1.4815535E+07   -2.7537244E-03    1.5331704E+07
  -5.240   300.000    1.829E+00    1.4697864E+07   -2.6126099E-01    1.4826004E-03    1.4697863E+07   -2.5679266E-03    1.5165195E+07
  -5.230   300.000    1.790E+00    1.4552153E+07   -1.7746148E-01    1.3779581E-03    1.4552153E+07   -2.3866802E-03    1.4988309E+07
  -5.220   300.000    1.751E+00    1.4377607E+07   -1.2053870E-01    1.2795948E-03    1.4377607E+07   -2.2163096E-03    1.4795599E+07
  -5.210   300.000    1.711E+00    1.4177403E+07   -8.1873635E-02    1.1995953E-03    1.4177403E+07   -2.0777461E-03    1.4583399E+07
  -5.200   300.000    1.670E+00    1.3959255E+07   -5.5610700E-02    1.1569240E-03    1.3959255E+07   -2.0038370E-03    1.4350496E+07
  -5.190   300.000    1.629E+00    1.3732998E+07   -3.7772039E-02    1.1606037E-03    1.3732998E+07   -2.0102102E-03    1.4096625E+07
  -5.180   300.000    1.586E+00    1.3506184E+07   -2.5655529E-02    1.1913482E-03    1.3506184E+07   -2.0634609E-03    1.3820728E+07
  -5.170   300.000    1.543E+00    1.3280303E+07   -1.7425711E-02    1.2006662E-03    1.3280303E+07   -2.0795999E-03    1.3520641E+07
  -5.160   300.000    1.498E+00    1.3050248E+07   -1.1835847E-02    1.1355941E-03    1.3050248E+07   -1.9668912E-03    1.3194309E+07
  -5.150   300.000    1.452E+00    1.2807601E+07   -8.0391046E-03    9.7615573E-04    1.2807601E+07   -1.6907354E-03    1.2841326E+07
  -5.140   300.000    1.406E+00    1.2545587E+07   -5.4602902E-03    7.5783472E-04    1.2545587E+07   -1.3125918E-03    1.2463385E+07
  -5.130   300.000    1.358E+00    1.2262720E+07   -3.7087158E-03    5.5886495E-04    1.2262720E+07   -9.6796552E-04    1.2063520E+07
  -5.120   300.000    1.309E+00    1.1963560E+07   -2.5190179E-03    4.5981059E-04    1.1963560E+07   -7.9639783E-04    1.1645289E+07
  -5.110   300.000    1.260E+00    1.1656729E+07   -1.7109562E-03    5.0467360E-04    1.1656729E+07   -8.7410249E-04    1.1212829E+07
  -5.100   300.000    1.210E+00    1.1351168E+07   -1.1621080E-03    6.8649576E-04    1.1351168E+07   -1.1890276E-03    1.0771247E+07
  -5.090   300.000    1.161E+00    1.1052090E+07   -7.8932188E-04    9.5723950E-04    1.1052090E+07   -1.6579697E-03    1.0326215E+07
  -5.080   300.000    1.112E+00    1.0758681E+07   -5.3611981E-04    1.2484580E-03    1.0758681E+07   -2.1623754E-03    9.8827940E+06
  -5.070   300.000    1.063E+00    1.0464865E+07   -3.6414110E-04    1.4932220E-03    1.0464865E+07   -2.5863199E-03    9.4444640E+06
  -5.060   300.000    1.015E+00    1.0162273E+07   -2.4733055E-04    1.6462598E-03    1.0162273E+07   -2.8513902E-03    9.0128010E+06
  -5.050   300.000    9.676E-01    9.8430947E+06   -1.6799105E-04    1.6967996E-03    9.8430947E+06   -2.9389290E-03    8.5874784E+06
  -5.040   300.000    9.212E-01    9.5014438E+06   -1.1410244E-04    1.6662046E-03    9.5014438E+06   -2.8859381E-03    8.1665373E+06
  -5.030   300.000    8.755E-01    9.1336573E+06   -7.7500465E-05    1.5910673E-03    9.1336573E+06   -2.7557976E-03    7.7472288E+06
  -5.020   300.000    8.307E-01    8.7384201E+06   -5.2639836E-05    1.5027756E-03    8.7384201E+06   -2.6028732E-03    7.3272098E+06
  -5.010   300.000    7.868E-01    8.3170363E+06   -3.5754112E-05    1.4145185E-03    8.3170363E+06   -2.4500084E-03    6.9053885E+06
  -5.000   300.000    7.437E-01    7.8737491E+06   -2.4285072E-05    1.3205275E-03    7.8737491E+06   -2.2872125E-03    6.4820398E+06
  -4.990   300.000    7.015E-01    7.4159911E+06   -1.6495133E-05    1.2069258E-03    7.4159911E+06   -2.0904501E-03    6.0584798E+06
  -4.980   300.000    6.603E-01    6.9543248E+06   -1.1204095E-05    1.0673407E-03    6.9543248E+06   -1.8486834E-03    5.6369611E+06
  -4.970   300.000    6.202E-01    6.5015739E+06   -7.6103457E-06    9.1202201E-04    6.5015739E+06   -1.5796657E-03    5.2210218E+06
  -4.960   300.000    5.814E-01    6.0708924E+06   -5.1694123E-06    7.6419493E-04    6.0708924E+06   -1.3236243E-03    4.8155622E+06
  -4.950   300.000    5.439E-01    5.6733263E+06   -3.5114827E-06    6.4775914E-04    5.6733263E+06   -1.1219547E-03    4.4258905E+06
  -4.940   300.000    5.079E-01    5.3157671E+06   -2.3853787E-06    5.7497576E-04    5.3157671E+06   -9.9589375E-04    4.0562673E+06
  -4.930   300.000    4.733E-01    4.9996031E+06   -1.6205011E-06    5.4073842E-04    4.9996031E+06   -9.3659690E-04    3.7092945E+06
  -4.920   300.000    4.404E-01    4.7198499E+06   -1.1009799E-06    5.2671493E-04    4.7198499E+06   -9.1231176E-04    3.3865123E+06
  -4.910   300.000    4.090E-01    4.4650697E+06   -7.4811421E-07    5.1363222E-04    4.4650697E+06   -8.8965614E-04    3.0891902E+06
  -4.900   300.000    3.795E-01    4.2192769E+06   -5.0844524E-07    4.9289530E-04    4.2192769E+06   -8.5374273E-04    2.8183872E+06
  -4.890   300.000    3.517E-01    3.9666092E+06   -3.4565808E-07    4.6735312E-04    3.9666092E+06   -8.0950568E-04    2.5744711E+06
  -4.880   300.000    3.259E-01    3.6974086E+06   -2.3508406E-07    4.4098383E-04    3.6974086E+06   -7.6383509E-04    2.3567909E+06
  -4.870   300.000    3.021E-01    3.4123291E+06   -1.5996821E-07    4.0860561E-04    3.4123291E+06   -7.0775570E-04    2.1637279E+06
  -4.860   300.000    2.801E-01    3.1216445E+06   -1.0893331E-07    3.5608545E-04    3.1216445E+06   -6.1678853E-04    1.9928769E+06
  -4.850   300.000    2.599E-01    2.8402229E+06   -7.4255377E-08    2.7110338E-04    2.8402229E+06   -4.6959512E-04    1.8411923E+06
  -4.840   300.000    2.414E-01    2.5816296E+06   -5.0690372E-08    1.5553727E-04    2.5816296E+06   -2.6942830E-04    1.7052261E+06
  -4.830   300.000    2.242E-01    2.3546820E+06   -3.4676978E-08    2.9185726E-05    2.3546820E+06   -5.0580553E-05    1.5816247E+06
  -4.820   300.000    2.083E-01    2.1632173E+06   -2.3795928E-08   -7.8765584E-05    2.1632173E+06    1.3639698E-04    1.4677242E+06
  -4.810   300.000    1.934E-01    2.0076750E+06   -1.6403809E-08   -1.4407088E-04    2.0076750E+06    2.4950934E-04    1.3618493E+06
  -4.800   300.000    1.795E-01    1.8866872E+06   -1.1384563E-08   -1.5689768E-04    1.8866872E+06    2.7172620E-04    1.2631894E+06
  -4.790   300.000    1.665E-01    1.7975697E+06   -7.9801006E-09   -1.2183166E-04    1.7975697E+06    2.1099017E-04    1.1714925E+06
  -4.780   300.000    1.544E-01    1.7356139E+06   -5.6746162E-09   -5.2792609E-05    1.7356139E+06    9.1411052E-05    1.0867721E+06
  -4.770   300.000    1.430E-01    1.6930361E+06   -4.1160009E-09    3.0790108E-05    1.6930361E+06   -5.3358519E-05    1.0090449E+06
  -4.760   300.000    1.325E-01    1.6589825E+06   -3.0629414E-09    1.0595987E-04    1.6589825E+06   -1.8355645E-04    9.3812762E+05
  -4.750   300.000    1.226E-01    1.6215799E+06   -2.3495045E-09    1.5059782E-04    1.6215799E+06   -2.6087166E-04    8.7356956E+05
  -4.740   300.000    1.135E-01    1.5715968E+06   -1.8615006E-09    1.5140690E-04    1.5715968E+06   -2.6227288E-04    8.1471471E+05
  -4.730   300.000    1.050E-01    1.5057097E+06   -1.5213134E-09    1.1063029E-04    1.5057097E+06   -1.9164534E-04    7.6080633E+05
  -4.720   300.000    9.708E-02    1.4270945E+06   -1.2771397E-09    4.6261086E-05    1.4270945E+06   -8.0154008E-05    7.1104191E+05
  -4.710   300.000    8.976E-02    1.3427981E+06   -1.0956651E-09   -1.4897535E-05    1.3427981E+06    2.5776643E-05    6.6456268E+05
  -4.700   300.000    8.293E-02    1.2597699E+06   -9.5613017E-10   -4.8524234E-05    1.2597699E+06    8.4020787E-05    6.2046420E+05
  -4.690   300.000    7.652E-02    1.1821863E+06   -8.4442951E-10   -4.3541739E-05    1.1821863E+06    7.5392001E-05    5.7788667E+05
  -4.680   300.000    7.044E-02    1.1111203E+06   -7.5188979E-10   -6.1162294E-06    1.1111203E+06    1.0570401E-05    5.3612981E+05
  -4.670   300.000    6.462E-02    1.0456483E+06   -6.7298342E-10    4.5935085E-05    1.0456483E+06   -7.9583731E-05    4.9473063E+05
  -4.660   300.000    5.901E-02    9.8402216E+05   -6.0537533E-10    9.3716609E-05    9.8402216E+05   -1.6234231E-04    4.5350287E+05
  -4.650   300.000    5.361E-02    9.2430174E+05   -5.4754202E-10    1.2487254E-04    9.2430174E+05   -2.1630450E-04    4.1254124E+05
  -4.640   300.000    4.841E-02    8.6465152E+05   -4.9967019E-10    1.3471256E-04    8.6465152E+05   -2.3334648E-04    3.7218064E+05
  -4.630   300.000    4.342E-02    8.0370997E+05   -4.6168884E-10    1.2362707E-04    8.0370997E+05   -2.1414445E-04    3.3291335E+05
  -4.620   300.000    3.869E-02    7.4108866E+05   -4.3173564E-10    9.5046172E-05    7.4108866E+05   -1.6463950E-04    2.9528247E+05
  -4.610   300.000    3.424E-02    6.7762890E+05   -4.0808077E-10    5.4920284E-05    6.7762890E+05   -9.5138039E-05    2.5978272E+05
  -4.600   300.000    3.008E-02    6.1509261E+05   -3.8774665E-10    1.0784504E-05    6.1509261E+05   -1.8691264E-05    2.2679400E+05
  -4.590   300.000    2.625E-02    5.5542074E+05   -3.6791775E-10   -3.0956362E-05    5.5542074E+05    5.3607362E-05    1.9655214E+05
  -4.580   300.000    2.272E-02    5.0000117E+05   -3.4506528E-10   -6.8046829E-05    5.0000117E+05    1.1785120E-04    1.6915097E+05
  -4.570   300.000    1.952E-02    4.4929605E+05   -3.1850997E-10   -1.0266750E-04    4.4929605E+05    1.7781714E-04    1.4456621E+05
  -4.560   300.000    1.663E-02    4.0288712E+05   -2.8838556E-10   -1.3819326E-04    4.0288712E+05    2.3935067E-04    1.2269124E+05
  -4.550   300.000    1.404E-02    3.5976788E+05   -2.5698570E-10   -1.7532069E-04    3.5976788E+05    3.0365829E-04    1.0337666E+05
  -4.540   300.000    1.174E-02    3.1870112E+05   -2.2609505E-10   -2.1075925E-04    3.1870112E+05    3.6504065E-04    8.6463810E+04
  -4.530   300.000    9.736E-03    2.7861564E+05   -1.9839719E-10   -2.3869110E-04    2.7861564E+05    4.1342093E-04    7.1802537E+04
  -4.520   300.000    8.006E-03    2.3906013E+05   -1.7479083E-10   -2.5332670E-04    2.3906013E+05    4.3877134E-04    5.9251286E+04
  -4.510   300.000    6.539E-03    2.0054015E+05   -1.5700280E-10   -2.5132663E-04    2.0054015E+05    4.3530783E-04    4.8665978E+04
  -4.500   300.000    5.317E-03    1.6443572E+05   -1.4599127E-10   -2.3329863E-04    1.6443572E+05    4.0408302E-04    3.9886495E+04
  -4.490   300.000    4.317E-03    1.3243973E+05   -1.4417907E-10   -2.0358918E-04    1.3243973E+05    3.5262524E-04    3.2726817E+04
  -4.480   300.000    3.510E-03    1.0585545E+05   -1.5509851E-10   -1.6846430E-04    1.0585545E+05    2.9178754E-04    2.6972365E+04
  -4.470   300.000    2.864E-03    8.5169626E+04   -1.8216592E-10   -1.3388607E-04    8.5169626E+04    2.3189659E-04    2.2387161E+04
  -4.460   300.000    2.347E-03    7.0030756E+04   -2.3173812E-10   -1.0400476E-04    7.0030756E+04    1.8014085E-04    1.8730272E+04
  -4.450   300.000    1.929E-03    5.9480559E+04   -3.1131194E-10   -8.0629334E-05    5.9480559E+04    1.3965358E-04    1.5776721E+04
  -4.440   300.000    1.586E-03    5.2239818E+04   -4.3312297E-10   -6.3465275E-05    5.2239818E+04    1.0992468E-04    1.3336342E+04
  -4.430   300.000    1.299E-03    4.6957382E+04   -6.1558671E-10   -5.0883681E-05    4.6957382E+04    8.8132804E-05    1.1265622E+04
  -4.420   300.000    1.056E-03    4.2428590E+04   -8.8509298E-10   -4.0943283E-05    4.2428590E+04    7.0915596E-05    9.4704818E+03
  -4.410   300.000    8.489E-04    3.7797179E+04   -1.2825790E-09   -3.2265859E-05    3.7797179E+04    5.5885912E-05    7.8998302E+03
  -4.400   300.000    6.745E-04    3.2692674E+04   -1.8691008E-09   -2.4402303E-05    3.2692674E+04    4.2265877E-05    6.5316564E+03
  -4.390   300.000    5.298E-04    2.7216999E+04   -2.7335452E-09   -1.7616824E-05    2.7216999E+04    3.0513121E-05    5.3562536E+03
  -4.380   300.000    4.119E-04    2.1761482E+04   -4.0083637E-09   -1.2354686E-05    2.1761482E+04    2.1398860E-05    4.3626798E+03
  -4.370   300.000    3.176E-04    1.6757084E+04   -5.8883724E-09   -8.7807304E-06    1.6757084E+04    1.5208610E-05    3.5326870E+03
  -4.360   300.000    2.431E-04    1.2496252E+04   -8.6584875E-09   -6.6397897E-06    1.2496252E+04    1.1500410E-05    2.8420654E+03
  -4.350   300.000    1.847E-04    9.0830196E+03   -1.2739434E-08   -5.4258292E-06    9.0830196E+03    9.3977812E-06    2.2658474E+03
  -4.340   300.000    1.391E-04    6.4743753E+03   -1.8750462E-08   -4.6484930E-06    6.4743753E+03    8.0514047E-06    1.7832786E+03
  -4.330   300.000    1.035E-04    4.5490424E+03   -2.7601628E-08   -3.9960297E-06    4.5490424E+03    6.9213118E-06    1.3800190E+03
  -4.320   300.000    7.603E-05    3.1634218E+03   -4.0634405E-08   -3.3472068E-06    3.1634218E+03    5.7975222E-06    1.0471614E+03
  -4.310   300.000    5.507E-05    2.1838974E+03   -5.9823881E-08   -2.7005175E-06    2.1838974E+03    4.6774267E-06    7.7841457E+02
  -4.300   300.000    3.935E-05    1.5000721E+03   -8.8076469E-08   -2.0976217E-06    1.5000721E+03    3.6331826E-06    5.6743914E+02
  -4.290   300.000    2.777E-05    1.0268249E+03   -1.2967322E-07   -1.5762692E-06    1.0268249E+03    2.7301752E-06    4.0662680E+02
  -4.280   300.000    1.940E-05    7.0129643E+02   -1.9091559E-07   -1.1537485E-06    7.0129643E+02    1.9983488E-06    2.8734856E+02
  -4.270   300.000    1.344E-05    4.7834771E+02   -2.8108219E-07   -8.2853173E-07    4.7834771E+02    1.4350576E-06    2.0090371E+02
  -4.260   300.000    9.248E-06    3.2616229E+02   -4.1383384E-07   -5.8809842E-07    3.2616229E+02    1.0186153E-06    1.3941368E+02
  -4.250   300.000    6.323E-06    2.2259870E+02   -6.0928223E-07   -4.1614901E-07    2.2259870E+02    7.2079053E-07    9.6319694E+01
  -4.240   300.000    4.290E-06    1.5239220E+02   -8.9703878E-07   -2.9710241E-07    1.5239220E+02    5.1459599E-07    6.6493302E+01
  -4.230   300.000    2.878E-06    1.0510361E+02   -1.3206990E-06   -2.1817257E-07    1.0510361E+02    3.7788565E-07    4.6106768E+01
  -4.220   300.000    1.886E-06    7.3659897E+01   -1.9444489E-06   -1.6996609E-07    7.3659894E+01    2.9438968E-07    3.2405479E+01
  -4.210   300.000    1.174E-06    5.3339373E+01   -2.8627880E-06   -1.4640884E-07    5.3339370E+01    2.5358738E-07    2.3472685E+01
  -4.200   300.000    6.359E-07    4.1082710E+01   -4.2148474E-06   -1.4451094E-07    4.1082705E+01    2.5030016E-07    1.8029833E+01
  -4.190   300.000    1.930E-07    3.5041476E+01   -6.2054676E-06   -1.6424932E-07    3.5041469E+01    2.8448805E-07    1.5286879E+01
  -4.180   300.000   -2.212E-07    3.4303427E+01   -9.1362332E-06   -2.0872128E-07    3.4303416E+01    3.6151574E-07    1.4843358E+01
  -4.170   300.000   -6.689E-07    3.8756185E+01   -1.3451163E-05   -2.8467805E-07    3.8756170E+01    4.9307671E-07    1.6636908E+01
  -4.160   300.000   -1.218E-06    4.9069870E+01   -1.9803981E-05   -4.0355550E-07    4.9069847E+01    6.9897846E-07    2.0936778E+01
  -4.150   300.000   -1.950E-06    6.6795808E+01   -2.9157156E-05   -5.8316205E-07    6.6795775E+01    1.0100661E-06    2.8383092E+01
  -4.140   300.000   -2.974E-06    9.4594553E+01   -4.2927719E-05   -8.5025204E-07    9.4594503E+01    1.4726794E-06    4.0076887E+01
  -4.130   300.000   -4.444E-06    1.3662339E+02   -6.3201948E-05   -1.2442995E-06    1.3662331E+02    2.1551895E-06    5.7730477E+01
  -4.120   300.000   -6.575E-06    1.9913245E+02   -9.3051443E-05   -1.8228790E-06    1.9913234E+02    3.1573184E-06    8.3891411E+01
  -4.110   300.000   -9.677E-06    2.9133922E+02   -1.3699848E-04   -2.6691240E-06    2.9133907E+02    4.6230573E-06    1.2225429E+02
  -4.100   300.000   -1.419E-05    4.2667035E+02   -2.0170115E-04   -3.9016922E-06    4.2667011E+02    6.7579276E-06    1.7806888E+02
  -4.090   300.000   -2.074E-05    6.2446801E+02   -2.9696208E-04   -5.6873644E-06    6.2446767E+02    9.8508017E-06    2.5863396E+02
  -4.080   300.000   -3.020E-05    9.1223299E+02   -4.3721352E-04   -8.2555239E-06    9.1223249E+02    1.4298983E-05    3.7382606E+02
  -4.070   300.000   -4.375E-05    1.3283722E+03   -6.4370390E-04   -1.1911751E-05    1.3283714E+03    2.0631752E-05    5.3654957E+02
  -4.060   300.000   -6.300E-05    1.9251553E+03   -9.4771694E-04   -1.7043550E-05    1.9251542E+03    2.9520287E-05    7.6293067E+02
  -4.050   300.000   -9.002E-05    2.7710553E+03   -1.3953112E-03   -2.4103088E-05    2.7710537E+03    4.1747762E-05    1.0720762E+03
  -4.040   300.000   -1.274E-04    3.9507884E+03   -2.0542977E-03   -3.3538281E-05    3.9507860E+03    5.8089992E-05    1.4853622E+03
  -4.030   300.000   -1.784E-04    5.5604150E+03   -3.0245136E-03   -4.5630352E-05    5.5604115E+03    7.9034066E-05    2.0254856E+03
  -4.020   300.000   -2.466E-04    7.6948541E+03   -4.4529463E-03   -6.0210782E-05    7.6948489E+03    1.0428810E-04    2.7156256E+03
  -4.010   300.000   -3.364E-04    1.0428333E+04   -6.5560010E-03   -7.6321438E-05    1.0428325E+04    1.3219257E-04    3.5786876E+03
  -4.000   300.000   -4.523E-04    1.3796848E+04   -9.6522831E-03   -9.2039118E-05    1.3796836E+04    1.5941637E-04    4.6359941E+03
  -3.990   300.000   -5.988E-04    1.7802616E+04   -1.4210859E-02   -1.0474745E-04    1.7802600E+04    1.8142783E-04    5.9050681E+03
  -3.980   300.000   -7.802E-04    2.2459809E+04   -2.0922302E-02   -1.1192476E-04    2.2459785E+04    1.9385925E-04    7.3979451E+03
  -3.970   300.000   -1.001E-03    2.7872852E+04   -3.0803278E-02   -1.1212842E-04    2.7872816E+04    1.9421196E-04    9.1231575E+03
  -3.960   300.000   -1.265E-03    3.4295517E+04   -4.5350489E-02   -1.0560214E-04    3.4295464E+04    1.8290805E-04    1.1093229E+04
  -3.950   300.000   -1.580E-03    4.2107728E+04   -6.6767236E-02   -9.4001069E-05    4.2107651E+04    1.6281432E-04    1.3335030E+04
  -3.940   300.000   -1.955E-03    5.1694645E+04   -9.8296830E-02   -7.9184584E-05    5.1694532E+04    1.3715131E-04    1.5897088E+04
  -3.930   300.000   -2.401E-03    6.3287228E+04   -1.4471309E-01   -6.1706924E-05    6.3287061E+04    1.0687898E-04    1.8849635E+04
  -3.920   300.000   -2.928E-03    7.6873590E+04   -2.1304170E-01   -4.0016685E-05    7.6873344E+04    6.9310226E-05    2.2278581E+04
  -3.910   300.000   -3.549E-03    9.2278025E+04   -3.1362054E-01   -1.1036357E-05    9.2277663E+04    1.9114639E-05    2.6279899E+04
  -3.900   300.000   -4.275E-03    1.0940467E+05   -4.6165704E-01    2.8113793E-05    1.0940414E+05   -4.8695636E-05    3.0960499E+04
  -3.890   300.000   -5.118E-03    1.2849803E+05   -6.7951298E-01    7.8295138E-05    1.2849724E+05   -1.3561255E-04    3.6444382E+04
  -3.880   300.000   -6.093E-03    1.5022284E+05   -1.0000509E+00    1.3744933E-04    1.5022168E+05   -2.3807097E-04    4.2875819E+04
  -3.870   300.000   -7.219E-03    1.7549707E+05   -1.4715232E+00    2.0079954E-04    1.7549537E+05   -3.4779717E-04    5.0411767E+04
  -3.860   300.000   -8.515E-03    2.0520713E+05   -2.1646888E+00    2.6168076E-04    2.0520463E+05   -4.5324706E-04    5.9204128E+04
  -3.850   300.000   -1.000E-02    2.3999236E+05   -3.1831162E+00    3.1258679E-04    2.3998869E+05   -5.4141949E-04    6.9382821E+04
  -3.840   300.000   -1.170E-02    2.8015259E+05   -4.6779767E+00    3.4633922E-04    2.8014719E+05   -5.9988110E-04    8.1051505E+04
  -3.830   300.000   -1.363E-02    3.2558013E+05   -6.8690258E+00    3.5740616E-04    3.2557220E+05   -6.1905040E-04    9.4295823E+04
  -3.820   300.000   -1.580E-02    3.7568359E+05   -1.0073805E+01    3.4339990E-04    3.7567196E+05   -5.9479174E-04    1.0919341E+05
  -3.810   300.000   -1.824E-02    4.2952341E+05   -1.4747108E+01    3.0664529E-04    4.2950638E+05   -5.3113184E-04    1.2581738E+05
  -3.800   300.000   -2.094E-02    4.8642296E+05   -2.1531857E+01    2.5507674E-04    4.8639809E+05   -4.4181355E-04    1.4423920E+05
  -3.790   300.000   -2.392E-02    5.4687436E+05   -3.1319566E+01    2.0119768E-04    5.4683819E+05   -3.4849345E-04    1.6454808E+05
  -3.780   300.000   -2.719E-02    6.1301288E+05   -4.5311647E+01    1.5877038E-04    6.1296056E+05   -2.7500856E-04    1.8689417E+05
  -3.770   300.000   -3.076E-02    6.8804236E+05   -6.5059619E+01    1.3846904E-04    6.8796723E+05   -2.3984721E-04    2.1154058E+05
  -3.760   300.000   -3.468E-02    7.7483187E+05   -9.2442002E+01    1.4378518E-04    7.7472513E+05   -2.4905692E-04    2.3890150E+05
  -3.750   300.000   -3.898E-02    8.7464352E+05   -1.2951464E+02    1.6789816E-04    8.7449397E+05   -2.9082397E-04    2.6955493E+05
  -3.740   300.000   -4.373E-02    9.8688095E+05   -1.7817083E+02    1.9334046E-04    9.8667521E+05   -3.3489362E-04    3.0423365E+05
  -3.730   300.000   -4.897E-02    1.1099424E+06   -2.3960588E+02    1.9728692E-04    1.1096658E+06   -3.4173147E-04    3.4380080E+05
  -3.720   300.000   -5.476E-02    1.2423500E+06   -3.1371912E+02    1.6226734E-04    1.2419878E+06   -2.8107818E-04    3.8921230E+05
  -3.710   300.000   -6.114E-02    1.3831654E+06   -3.9874177E+02    8.6730833E-05    1.3827049E+06   -1.5024756E-04    4.4146309E+05
  -3.700   300.000   -6.814E-02    1.5316297E+06   -4.9138405E+02   -1.1538350E-05    1.5310623E+06    1.9957126E-05    5.0150470E+05
  -3.690   300.000   -7.580E-02    1.6869659E+06   -5.8753922E+02   -1.0162844E-04    1.6862875E+06    1.7599501E-04    5.7012609E+05
  -3.680   300.000   -8.412E-02    1.8489643E+06   -6.8322744E+02   -1.5126423E-04    1.8481754E+06    2.6196372E-04    6.4782595E+05
  -3.670   300.000   -9.310E-02    2.0186391E+06   -7.7532497E+02   -1.3634532E-04    2.0177438E+06    2.3612010E-04    7.3472031E+05
  -3.660   300.000   -1.027E-01    2.1977094E+06   -8.6181938E+02   -4.3043486E-05    2.1967142E+06    7.4513043E-05    8.3048776E+05
  -3.650   300.000   -1.130E-01    2.3868420E+06   -9.4166005E+02    1.3523840E-04    2.3857546E+06   -2.3428395E-04    9.3433680E+05
  -3.640   300.000   -1.239E-01    2.5841532E+06   -1.0144659E+03    3.9932495E-04    2.5829818E+06   -6.9169904E-04    1.0450261E+06
  -3.630   300.000   -1.354E-01    2.7855372E+06   -1.0802913E+03    7.4131548E-04    2.7842898E+06   -1.2840479E-03    1.1609719E+06
  -3.620   300.000   -1.474E-01    2.9869396E+06   -1.1394584E+03    1.1410482E-03    2.9856239E+06   -1.9764092E-03    1.2804222E+06
  -3.610   300.000   -1.598E-01    3.1872608E+06   -1.1923880E+03    1.5676388E-03    3.1858839E+06   -2.7152900E-03    1.4016558E+06
  -3.600   300.000   -1.727E-01    3.3902389E+06   -1.2394636E+03    1.9885119E-03    3.3888077E+06   -3.4442681E-03    1.5231848E+06
  -3.590   300.000   -1.859E-01    3.6042423E+06   -1.2810205E+03    2.3825275E-03    3.6027631E+06   -4.1267281E-03    1.6439397E+06
  -3.580   300.000   -1.996E-01    3.8397653E+06   -1.3174431E+03    2.7472448E-03    3.8382440E+06   -4.7584422E-03    1.7633832E+06
  -3.570   300.000   -2.138E-01    4.1053285E+06   -1.3492586E+03    3.0901158E-03    4.1037705E+06   -5.3523175E-03    1.8815122E+06
  -3.560   300.000   -2.286E-01    4.4032367E+06   -1.3771359E+03    3.4066363E-03    4.4016465E+06   -5.9005526E-03    1.9987853E+06
  -3.550   300.000   -2.441E-01    4.7268080E+06   -1.4018006E+03    3.6645998E-03    4.7251893E+06   -6.3473641E-03    2.1160568E+06
  -3.540   300.000   -2.604E-01    5.0601680E+06   -1.4238967E+03    3.8116199E-03    5.0585238E+06   -6.6020153E-03    2.2345107E+06
  -3.530   300.000   -2.775E-01    5.3809745E+06   -1.4438367E+03    3.8027742E-03    5.3793073E+06   -6.5866986E-03    2.3555087E+06
  -3.520   300.000   -2.956E-01    5.6658412E+06   -1.4617420E+03    3.6275034E-03    5.6641533E+06   -6.2831244E-03    2.4803996E+06
  -3.510   300.000   -3.145E-01    5.8974218E+06   -1.4774488E+03    3.3148488E-03    5.8957158E+06   -5.7415938E-03    2.6104954E+06
  -3.500   300.000   -3.341E-01    6.0709127E+06   -1.4905516E+03    2.9129884E-03    6.0691916E+06   -5.0455540E-03    2.7471904E+06
  -3.490   300.000   -3.545E-01    6.1970999E+06   -1.5005780E+03    2.4591135E-03    6.1953672E+06   -4.2594225E-03    2.8919097E+06
  -3.480   300.000   -3.755E-01    6.3001541E+06   -1.5071815E+03    1.9615333E-03    6.2984138E+06   -3.3975920E-03    3.0458236E+06
  -3.470   300.000   -3.972E-01    6.4108110E+06   -1.5102235E+03    1.4057793E-03    6.4090672E+06   -2.4350024E-03    3.2096953E+06
  -3.460   300.000   -4.196E-01    6.5577611E+06   -1.5097543E+03    7.8286314E-04    6.5560178E+06   -1.3560857E-03    3.3840051E+06
  -3.450   300.000   -4.428E-01    6.7606910E+06   -1.5058598E+03    1.2542375E-04    6.7589522E+06   -2.1737414E-04    3.5689841E+06
  -3.440   300.000   -4.668E-01    7.0272945E+06   -1.4985294E+03   -4.7279411E-04    7.0255641E+06    8.1876177E-04    3.7643843E+06
  -3.430   300.000   -4.919E-01    7.3543443E+06   -1.4876977E+03   -8.7490983E-04    7.3526265E+06    1.5152383E-03    3.9693524E+06
  -3.420   300.000   -5.180E-01    7.7310180E+06   -1.4732749E+03   -9.5320924E-04    7.7293169E+06    1.6508485E-03    4.1826545E+06
  -3.410   300.000   -5.451E-01    8.1425087E+06   -1.4551290E+03   -6.4645962E-04    8.1408284E+06    1.1195345E-03    4.4029914E+06
  -3.400   300.000   -5.734E-01    8.5729398E+06   -1.4330903E+03    1.1631503E-05    8.5712850E+06   -2.0320118E-05    4.6291125E+06
  -3.390   300.000   -6.027E-01    9.0070925E+06   -1.4068553E+03    9.0617244E-04    9.0054680E+06   -1.5697169E-03    4.8597925E+06
  -3.380   300.000   -6.330E-01    9.4305891E+06   -1.3758862E+03    1.8845052E-03    9.4290003E+06   -3.2642443E-03    5.0939227E+06
  -3.370   300.000   -6.643E-01    9.8290580E+06   -1.3394322E+03    2.8049089E-03    9.8275114E+06   -4.8584346E-03    5.3307689E+06
  -3.360   300.000   -6.964E-01    1.0187882E+07   -1.2965288E+03    3.5691887E-03    1.0186385E+07   -6.1822090E-03    5.5701150E+06
  -3.350   300.000   -7.294E-01    1.0493964E+07   -1.2460083E+03    4.1298603E-03    1.0492525E+07   -7.1533231E-03    5.8120560E+06
  -3.340   300.000   -7.632E-01    1.0739429E+07   -1.1866270E+03    4.4796992E-03    1.0738059E+07   -7.7592638E-03    6.0566978E+06
  -3.330   300.000   -7.977E-01    1.0925264E+07   -1.1172412E+03    4.6392405E-03    1.0923974E+07   -8.0355992E-03    6.3041699E+06
  -3.320   300.000   -8.328E-01    1.1062029E+07   -1.0370530E+03    4.6473021E-03    1.1060831E+07   -8.0495647E-03    6.5547714E+06
  -3.310   300.000   -8.686E-01    1.1166403E+07   -9.4595618E+02    4.5474544E-03    1.1165311E+07   -7.8766258E-03    6.8087523E+06
  -3.300   300.000   -9.048E-01    1.1255654E+07   -8.4490208E+02    4.3688064E-03    1.1254678E+07   -7.5672009E-03    7.0657602E+06
  -3.290   300.000   -9.415E-01    1.1343575E+07   -7.3620642E+02    4.1137611E-03    1.1342725E+07   -7.1254512E-03    7.3244901E+06
  -3.280   300.000   -9.786E-01    1.1439613E+07   -6.2367796E+02    3.7661511E-03    1.1438893E+07   -6.5233732E-03    7.5829221E+06
  -3.270   300.000   -1.016E+00    1.1550214E+07   -5.1235932E+02    3.3160852E-03    1.1549622E+07   -5.7438340E-03    7.8389063E+06
  -3.260   300.000   -1.054E+00    1.1680322E+07   -4.0773781E+02    2.7801789E-03    1.1679851E+07   -4.8156123E-03    8.0903848E+06
  -3.250   300.000   -1.091E+00    1.1833737E+07   -3.1458785E+02    2.1985808E-03    1.1833374E+07   -3.8082479E-03    8.3350845E+06
  -3.240   300.000   -1.129E+00    1.2012743E+07   -2.3594604E+02    1.6135740E-03    1.2012470E+07   -2.7949782E-03    8.5706618E+06
  -3.230   300.000   -1.167E+00    1.2217975E+07   -1.7270817E+02    1.0510642E-03    1.2217775E+07   -1.8206740E-03    8.7961371E+06
  -3.220   300.000   -1.205E+00    1.2448462E+07   -1.2393809E+02    5.1855344E-04    1.2448318E+07   -8.9833005E-04    9.0135725E+06
  -3.210   300.000   -1.243E+00    1.2700919E+07   -8.7579362E+01    1.9116561E-05    1.2700817E+07   -3.3273027E-05    9.2278335E+06
  -3.200   300.000   -1.282E+00    1.2968411E+07   -6.1175829E+01   -4.2566852E-04    1.2968341E+07    7.3712257E-04    9.4440509E+06
  -3.190   300.000   -1.321E+00    1.3239870E+07   -4.2374053E+01   -7.5881422E-04    1.3239821E+07    1.3141513E-03    9.6653725E+06
  -3.180   300.000   -1.361E+00    1.3501651E+07   -2.9174883E+01   -8.9658145E-04    1.3501618E+07    1.5527735E-03    9.8936018E+06
  -3.170   300.000   -1.402E+00    1.3740270E+07   -2.0002414E+01   -7.6584763E-04    1.3740247E+07    1.3263380E-03    1.0131641E+07
  -3.160   300.000   -1.444E+00    1.3943973E+07   -1.3673467E+01   -3.4637629E-04    1.3943957E+07    5.9979544E-04    1.0384062E+07
  -3.150   300.000   -1.486E+00    1.4102423E+07   -9.3281015E+00    3.1122276E-04    1.4102412E+07   -5.3919451E-04    1.0654552E+07
  -3.140   300.000   -1.529E+00    1.4206797E+07   -6.3548109E+00    1.1009273E-03    1.4206790E+07   -1.9069956E-03    1.0943471E+07
  -3.130   300.000   -1.573E+00    1.4252808E+07   -4.3251231E+00    1.9005143E-03    1.4252803E+07   -3.2919114E-03    1.1249065E+07
  -3.120   300.000   -1.618E+00    1.4245602E+07   -2.9418028E+00    2.6170307E-03    1.4245599E+07   -4.5329432E-03    1.1571164E+07
  -3.110   300.000   -1.663E+00    1.4202198E+07   -2.0000494E+00    3.2150285E-03    1.4202196E+07   -5.5686936E-03    1.1912669E+07
  -3.100   300.000   -1.709E+00    1.4148292E+07   -1.3594007E+00    3.7084389E-03    1.4148291E+07   -6.4232931E-03    1.2276669E+07
  -3.090   300.000   -1.755E+00    1.4111088E+07   -9.2382269E-01    4.1207433E-03    1.4111087E+07   -7.1374133E-03    1.2662335E+07
  -3.080   300.000   -1.802E+00    1.4112900E+07   -6.2779883E-01    4.4428131E-03    1.4112899E+07   -7.6952435E-03    1.3064147E+07
  -3.070   300.000   -1.848E+00    1.4168012E+07   -4.2670002E-01    4.6189308E-03    1.4168011E+07   -8.0002782E-03    1.3475140E+07
  -3.060   300.000   -1.895E+00    1.4281322E+07   -2.9016055E-01    4.5671662E-03    1.4281322E+07   -7.9106104E-03    1.3890732E+07
  -3.050   300.000   -1.941E+00    1.4447102E+07   -1.9754110E-01    4.2137389E-03    1.4447102E+07   -7.2984485E-03    1.4309651E+07
  -3.040   300.000   -1.988E+00    1.4648902E+07   -1.3483117E-01    3.5187577E-03    1.4648902E+07   -6.0946991E-03    1.4731650E+07
  -3.030   300.000   -2.034E+00    1.4862656E+07   -9.2539992E-02    2.4888926E-03    1.4862656E+07   -4.3109145E-03    1.5154423E+07
  -3.020   300.000   -2.081E+00    1.5063056E+07   -6.4264932E-02    1.1836466E-03    1.5063056E+07   -2.0501567E-03    1.5572691E+07
  -3.010   300.000   -2.128E+00    1.5230792E+07   -4.5724362E-02   -2.8245259E-04    1.5230792E+07    4.8920696E-04    1.5980562E+07
  -3.000   300.000   -2.174E+00    1.5357809E+07   -3.4110311E-02   -1.7448573E-03    1.5357809E+07    3.0221719E-03    1.6375439E+07
# T(K) = 500.000 Npoints =     301 V(cm^3) =  1.145E-21
  -5.500   500.000    2.929E+00    1.7580123E+07   -1.3447443E+03    2.1353214E-03    1.7578570E+07   -3.6984671E-03    1.8956577E+07
  -5.490   500.000    2.884E+00    1.7505079E+07   -1.2272672E+03    2.3270499E-03    1.7503661E+07   -4.0305511E-03    1.8883469E+07
  -5.480   500.000    2.839E+00    1.7416375E+07   -1.1063457E+03    2.5582217E-03    1.7415098E+07   -4.4309526E-03    1.8796870E+07
  -5.470   500.000    2.794E+00    1.7315327E+07   -9.8496283E+02    2.8221837E-03    1.7314189E+07   -4.8881487E-03    1.8698685E+07
  -5.460   500.000    2.749E+00    1.7203348E+07   -8.6603969E+02    3.1073918E-03    1.7202348E+07   -5.3821440E-03    1.8590393E+07
  -5.450   500.000    2.705E+00    1.7082033E+07   -7.5223794E+02    3.3978299E-03    1.7081165E+07   -5.8851979E-03    1.8473086E+07
  -5.440   500.000    2.661E+00    1.6953147E+07   -6.4577857E+02    3.6744492E-03    1.6952402E+07   -6.3643170E-03    1.8347532E+07
  -5.430   500.000    2.617E+00    1.6818538E+07   -5.4831083E+02    3.9172931E-03    1.6817905E+07   -6.7849354E-03    1.8214279E+07
  -5.420   500.000    2.573E+00    1.6680024E+07   -4.6085388E+02    4.1078985E-03    1.6679492E+07   -7.1150740E-03    1.8073786E+07
  -5.410   500.000    2.529E+00    1.6539292E+07   -3.8381519E+02    4.2315771E-03    1.6538849E+07   -7.3292920E-03    1.7926539E+07
  -5.400   500.000    2.486E+00    1.6397838E+07   -3.1707209E+02    4.2792282E-03    1.6397471E+07   -7.4118266E-03    1.7773140E+07
  -5.390   500.000    2.442E+00    1.6256962E+07   -2.6009176E+02    4.2484186E-03    1.6256662E+07   -7.3584632E-03    1.7614329E+07
  -5.380   500.000    2.399E+00    1.6117810E+07   -2.1206322E+02    4.1435802E-03    1.6117565E+07   -7.1768781E-03    1.7450981E+07
  -5.370   500.000    2.357E+00    1.5981403E+07   -1.7202018E+02    3.9753138E-03    1.5981204E+07   -6.8854326E-03    1.7284051E+07
  -5.360   500.000    2.314E+00    1.5848654E+07   -1.3894184E+02    3.7589090E-03    1.5848494E+07   -6.5106089E-03    1.7114514E+07
  -5.350   500.000    2.272E+00    1.5720328E+07   -1.1182683E+02    3.5122876E-03    1.5720199E+07   -6.0834484E-03    1.6943284E+07
  -5.340   500.000    2.230E+00    1.5596949E+07   -8.9741547E+01    3.2536547E-03    1.5596846E+07   -5.6354833E-03    1.6771129E+07
  -5.330   500.000    2.189E+00    1.5478684E+07   -7.1846999E+01    2.9992030E-03    1.5478602E+07   -5.1947602E-03    1.6598597E+07
  -5.320   500.000    2.148E+00    1.5365221E+07   -5.7409807E+01    2.7612566E-03    1.5365154E+07   -4.7826251E-03    1.6425944E+07
  -5.310   500.000    2.107E+00    1.5255670E+07   -4.5802271E+01    2.5472205E-03    1.5255617E+07   -4.4119038E-03    1.6253083E+07
  -5.300   500.000    2.066E+00    1.5148539E+07   -3.6495856E+01    2.3595619E-03    1.5148497E+07   -4.0868696E-03    1.6079562E+07
  -5.290   500.000    2.026E+00    1.5041780E+07   -2.9051149E+01    2.1967825E-03    1.5041746E+07   -3.8049272E-03    1.5904577E+07
  -5.280   500.000    1.985E+00    1.4932935E+07   -2.3106465E+01    2.0550223E-03    1.4932908E+07   -3.5593912E-03    1.5727026E+07
  -5.270   500.000    1.945E+00    1.4819363E+07   -1.8366416E+01    1.9297460E-03    1.4819342E+07   -3.3424061E-03    1.5545573E+07
  -5.260   500.000    1.905E+00    1.4698495E+07   -1.4591253E+01    1.8170141E-03    1.4698479E+07   -3.1471486E-03    1.5358725E+07
  -5.250   500.000    1.865E+00    1.4568072E+07   -1.1587328E+01    1.7141035E-03    1.4568058E+07   -2.9689018E-03    1.5164882E+07
  -5.240   500.000    1.824E+00    1.4426327E+07   -9.1988334E+00    1.6195387E-03    1.4426316E+07   -2.8051106E-03    1.4962379E+07
  -5.230   500.000    1.784E+00    1.4272096E+07   -7.3007907E+00    1.5327606E-03    1.4272088E+07   -2.6548062E-03    1.4749542E+07
  -5.220   500.000    1.743E+00    1.4104844E+07   -5.7931900E+00    1.4536511E-03    1.4104837E+07   -2.5177841E-03    1.4524755E+07
  -5.210   500.000    1.701E+00    1.3924592E+07   -4.5961557E+00    1.3820580E-03    1.3924587E+07   -2.3937810E-03    1.4286538E+07
  -5.200   500.000    1.659E+00    1.3731777E+07   -3.6459893E+00    1.3174239E-03    1.3731772E+07   -2.2818311E-03    1.4033619E+07
  -5.190   500.000    1.617E+00    1.3527036E+07   -2.8919537E+00    1.2586479E-03    1.3527033E+07   -2.1800279E-03    1.3764988E+07
  -5.180   500.000    1.574E+00    1.3311007E+07   -2.2936746E+00    1.2043192E-03    1.3311005E+07   -2.0859275E-03    1.3479946E+07
  -5.170   500.000    1.530E+00    1.3084181E+07   -1.8190479E+00    1.1533457E-03    1.3084179E+07   -1.9976386E-03    1.3178141E+07
  -5.160   500.000    1.486E+00    1.2846867E+07   -1.4425608E+00    1.1057797E-03    1.2846865E+07   -1.9152517E-03    1.2859611E+07
  -5.150   500.000    1.441E+00    1.2599266E+07   -1.1439484E+00    1.0634277E-03    1.2599265E+07   -1.8418957E-03    1.2524815E+07
  -5.140   500.000    1.395E+00    1.2341601E+07   -9.0711981E-01    1.0298142E-03    1.2341600E+07   -1.7836752E-03    1.2174640E+07
  -5.130   500.000    1.350E+00    1.2074227E+07   -7.1930278E-01    1.0093190E-03    1.2074226E+07   -1.7481764E-03    1.1810381E+07
  -5.120   500.000    1.303E+00    1.1797654E+07   -5.7036122E-01    1.0057100E-03    1.1797653E+07   -1.7419254E-03    1.1433678E+07
  -5.110   500.000    1.257E+00    1.1512467E+07   -4.5225276E-01    1.0206191E-03    1.1512466E+07   -1.7677488E-03    1.1046425E+07
  -5.100   500.000    1.210E+00    1.1219169E+07   -3.5859722E-01    1.0525689E-03    1.1219169E+07   -1.8230879E-03    1.0650657E+07
  -5.090   500.000    1.163E+00    1.0918019E+07   -2.8433360E-01    1.0969269E-03    1.0918019E+07   -1.8999185E-03    1.0248425E+07
  -5.080   500.000    1.117E+00    1.0608930E+07   -2.2544778E-01    1.1467848E-03    1.0608929E+07   -1.9862755E-03    9.8416694E+06
  -5.070   500.000    1.071E+00    1.0291488E+07   -1.7875615E-01    1.1944250E-03    1.0291488E+07   -2.0687912E-03    9.4321234E+06
  -5.060   500.000    1.025E+00    9.9650842E+06   -1.4173392E-01    1.2328618E-03    9.9650840E+06   -2.1353666E-03    9.0212556E+06
  -5.050   500.000    9.793E-01    9.6291300E+06   -1.1237892E-01    1.2569888E-03    9.6291298E+06   -2.1771567E-03    8.6102650E+06
  -5.040   500.000    9.345E-01    9.2833040E+06   -8.9103459E-02    1.2640619E-03    9.2833039E+06   -2.1894088E-03    8.2001307E+06
  -5.030   500.000    8.903E-01    8.9277815E+06   -7.0648535E-02    1.2535320E-03    8.9277814E+06   -2.1711717E-03    7.7917016E+06
  -5.020   500.000    8.468E-01    8.5634048E+06   -5.6015844E-02    1.2264687E-03    8.5634047E+06   -2.1242980E-03    7.3858079E+06
  -5.010   500.000    8.042E-01    8.1917724E+06   -4.4413800E-02    1.1849076E-03    8.1917723E+06   -2.0523136E-03    6.9833681E+06
  -5.000   500.000    7.625E-01    7.8152296E+06   -3.5214735E-02    1.1313769E-03    7.8152296E+06   -1.9595973E-03    6.5854726E+06
  -4.990   500.000    7.217E-01    7.4367551E+06   -2.7920969E-02    1.0686768E-03    7.4367550E+06   -1.8509994E-03    6.1934301E+06
  -4.980   500.000    6.820E-01    7.0597449E+06   -2.2137889E-02    9.9981286E-04    7.0597449E+06   -1.7317254E-03    5.8087707E+06
  -4.970   500.000    6.434E-01    6.6877143E+06   -1.7552608E-02    9.2790608E-04    6.6877142E+06   -1.6071813E-03    5.4332059E+06
  -4.960   500.000    6.060E-01    6.3239513E+06   -1.3917041E-02    8.5596277E-04    6.3239513E+06   -1.4825742E-03    5.0685527E+06
  -4.950   500.000    5.699E-01    5.9711803E+06   -1.1034482E-02    7.8651758E-04    5.9711803E+06   -1.3622940E-03    4.7166313E+06
  -4.940   500.000    5.350E-01    5.6312944E+06   -8.7489695E-03    7.2128230E-04    5.6312944E+06   -1.2493057E-03    4.3791577E+06
  -4.930   500.000    5.015E-01    5.3052206E+06   -6.9368410E-03    6.6095778E-04    5.3052206E+06   -1.1448231E-03    4.0576451E+06
  -4.920   500.000    4.695E-01    4.9929560E+06   -5.5000482E-03    6.0529083E-04    4.9929560E+06   -1.0484076E-03    3.7533278E+06
  -4.910   500.000    4.389E-01    4.6937861E+06   -4.3608506E-03    5.5333751E-04    4.6937861E+06   -9.5842430E-04    3.4671086E+06
  -4.900   500.000    4.099E-01    4.4066488E+06   -3.4576090E-03    5.0381119E-04    4.4066488E+06   -8.7264448E-04    3.1995277E+06
  -4.890   500.000    3.824E-01    4.1305632E+06   -2.7414513E-03    4.5539859E-04    4.1305632E+06   -7.8879347E-04    2.9507506E+06
  -4.880   500.000    3.564E-01    3.8650145E+06   -2.1736279E-03    4.0700338E-04    3.8650145E+06   -7.0497232E-04    2.7205746E+06
  -4.870   500.000    3.319E-01    3.6101862E+06   -1.7234152E-03    3.5794920E-04    3.6101862E+06   -6.2000949E-04    2.5084576E+06
  -4.860   500.000    3.090E-01    3.3669792E+06   -1.3664530E-03    3.0817809E-04    3.3669792E+06   -5.3380461E-04    2.3135672E+06
  -4.850   500.000    2.874E-01    3.1368250E+06   -1.0834270E-03    2.5841423E-04    3.1368250E+06   -4.4761201E-04    2.1348495E+06
  -4.840   500.000    2.673E-01    2.9213639E+06   -8.5902304E-04    2.1019330E-04    2.9213639E+06   -3.6409160E-04    1.9711103E+06
  -4.830   500.000    2.485E-01    2.7220861E+06   -6.8109921E-04    1.6565882E-04    2.7220861E+06   -2.8695612E-04    1.8210984E+06
  -4.820   500.000    2.309E-01    2.5400243E+06   -5.4002835E-04    1.2711520E-04    2.5400243E+06   -2.2019694E-04    1.6835808E+06
  -4.810   500.000    2.145E-01    2.3755448E+06   -4.2817738E-04    9.6449481E-05    2.3755448E+06   -1.6708257E-04    1.5573989E+06
  -4.800   500.000    1.992E-01    2.2282523E+06   -3.3949426E-04    7.4610358E-05    2.2282523E+06   -1.2925620E-04    1.4415010E+06
  -4.790   500.000    1.849E-01    2.0969982E+06   -2.6918051E-04    6.1319611E-05    2.0969982E+06   -1.0623598E-04    1.3349497E+06
  -4.780   500.000    1.716E-01    1.9799812E+06   -2.1343158E-04    5.5106817E-05    1.9799812E+06   -9.5475049E-05    1.2369117E+06
  -4.770   500.000    1.591E-01    1.8749309E+06   -1.6923101E-04    5.3653639E-05    1.8749309E+06   -9.2957946E-05    1.1466357E+06
  -4.760   500.000    1.475E-01    1.7793570E+06   -1.3418717E-04    5.4349976E-05    1.7793570E+06   -9.4163836E-05    1.0634285E+06
  -4.750   500.000    1.366E-01    1.6908322E+06   -1.0640392E-04    5.4911466E-05    1.6908322E+06   -9.5136078E-05    9.8663455E+05
  -4.740   500.000    1.265E-01    1.6072562E+06   -8.4377952E-05    5.3886787E-05    1.6072562E+06   -9.3360898E-05    9.1562256E+05
  -4.730   500.000    1.170E-01    1.5270415E+06   -6.6917477E-05    5.0903300E-05    1.5270415E+06   -8.8192861E-05    8.4978088E+05
  -4.720   500.000    1.082E-01    1.4491779E+06   -5.3077742E-05    4.6571819E-05    1.4491779E+06   -8.0689924E-05    7.8852006E+05
  -4.710   500.000    9.992E-02    1.3731716E+06   -4.2109906E-05    4.2084845E-05    1.3731716E+06   -7.2917557E-05    7.3128134E+05
  -4.700   500.000    9.216E-02    1.2988966E+06   -3.3420520E-05    3.8655746E-05    1.2988966E+06   -6.6977380E-05    6.7754905E+05
  -4.690   500.000    8.488E-02    1.2264162E+06   -2.6539419E-05    3.7005521E-05    1.2264162E+06   -6.4118207E-05    6.2686478E+05
  -4.680   500.000    7.804E-02    1.1558316E+06   -2.1094280E-05    3.7075996E-05    1.1558316E+06   -6.4239289E-05    5.7884086E+05
  -4.670   500.000    7.159E-02    1.0871904E+06   -1.6790481E-05    3.8045188E-05    1.0871904E+06   -6.5916924E-05    5.3317051E+05
  -4.660   500.000    6.552E-02    1.0204586E+06   -1.3395151E-05    3.8595332E-05    1.0204586E+06   -6.6868690E-05    4.8963252E+05
  -4.650   500.000    5.979E-02    9.5554123E+05   -1.0724578E-05    3.7299533E-05    9.5554123E+05   -6.4623146E-05    4.4808913E+05
  -4.640   500.000    5.439E-02    8.9232930E+05   -8.6342645E-06    3.2981605E-05    8.9232930E+05   -5.7143095E-05    4.0847707E+05
  -4.630   500.000    4.930E-02    8.3075021E+05   -7.0111090E-06    2.4951198E-05    8.3075021E+05   -4.3232826E-05    3.7079286E+05
  -4.620   500.000    4.452E-02    7.7080361E+05   -5.7672873E-06    1.3082506E-05    7.7080361E+05   -2.2674452E-05    3.3507444E+05
  -4.610   500.000    4.004E-02    7.1257271E+05   -4.8355000E-06   -2.2428047E-06    7.1257271E+05    3.8709529E-06    3.0138189E+05
  -4.600   500.000    3.586E-02    6.5620895E+05   -4.1653309E-06   -2.0278479E-05    6.5620895E+05    3.5110825E-05    2.6977957E+05
  -4.590   500.000    3.197E-02    6.0189732E+05   -3.7205198E-06   -4.0081658E-05    6.0189732E+05    6.9412080E-05    2.4032174E+05
  -4.580   500.000    2.837E-02    5.4981573E+05   -3.4769999E-06   -6.0650877E-05    5.4981573E+05    1.0504011E-04    2.1304259E+05
  -4.570   500.000    2.506E-02    5.0010263E+05   -3.4215960E-06   -8.1002362E-05    5.0010263E+05    1.4029098E-04    1.8795082E+05
  -4.560   500.000    2.203E-02    4.5284307E+05   -3.5513119E-06   -1.0018885E-04    4.5284307E+05    1.7352396E-04    1.6502809E+05
  -4.550   500.000    1.927E-02    4.0807578E+05   -3.8731677E-06   -1.1729644E-04    4.0807578E+05    2.0315613E-04    1.4423025E+05
  -4.540   500.000    1.677E-02    3.6581647E+05   -4.4045801E-06   -1.3146320E-04    3.6581647E+05    2.2769457E-04    1.2549009E+05
  -4.530   500.000    1.453E-02    3.2608717E+05   -5.1743046E-06   -1.4194382E-04    3.2608717E+05    2.4584836E-04    1.0872073E+05
  -4.520   500.000    1.253E-02    2.8893964E+05   -6.2239911E-06   -1.4821084E-04    2.8893964E+05    2.5670390E-04    9.3818813E+04
  -4.510   500.000    1.076E-02    2.5446282E+05   -7.6104379E-06   -1.5005555E-04    2.5446282E+05    2.5989973E-04    8.0667388E+04
  -4.500   500.000    9.204E-03    2.2277010E+05   -9.4086644E-06   -1.4764489E-04    2.2277010E+05    2.5572495E-04    6.9138600E+04
  -4.490   500.000    7.844E-03    1.9396957E+05   -1.1715971E-05   -1.4150551E-04    1.9396957E+05    2.4509176E-04    5.9096393E+04
  -4.480   500.000    6.663E-03    1.6812678E+05   -1.4657202E-05   -1.3243447E-04    1.6812678E+05    2.2938074E-04    5.0399571E+04
  -4.470   500.000    5.644E-03    1.4523230E+05   -1.8391504E-05   -1.2136242E-04    1.4523230E+05    2.1020380E-04    4.2905295E+04
  -4.460   500.000    4.768E-03    1.2518393E+05   -2.3120934E-05   -1.0920893E-04    1.2518393E+05    1.8915368E-04    3.6472908E+04
  -4.450   500.000    4.019E-03    1.0778806E+05   -2.9101393E-05   -9.6767046E-05    1.0778806E+05    1.6760401E-04    3.0967769E+04
  -4.440   500.000    3.379E-03    9.2778637E+04   -3.6656473E-05   -8.4639008E-05    9.2778637E+04    1.4659788E-04    2.6264646E+04
  -4.430   500.000    2.834E-03    7.9847882E+04   -4.6194966E-05   -7.3225357E-05    7.9847882E+04    1.2682907E-04    2.2250265E+04
  -4.420   500.000    2.371E-03    6.8680896E+04   -5.8232984E-05   -6.2754142E-05    6.8680896E+04    1.0869256E-04    1.8824731E+04
  -4.410   500.000    1.979E-03    5.8986568E+04   -7.3421881E-05   -5.3328821E-05    5.8986568E+04    9.2367574E-05    1.5901762E+04
  -4.400   500.000    1.647E-03    5.0518990E+04   -9.2583502E-05   -4.4974832E-05    5.0518990E+04    7.7898160E-05    1.3407909E+04
  -4.390   500.000    1.366E-03    4.3086628E+04   -1.1675465E-04   -3.7672707E-05    4.3086628E+04    6.5250607E-05    1.1281091E+04
  -4.380   500.000    1.130E-03    3.6549845E+04   -1.4724317E-04   -3.1375427E-05    3.6549845E+04    5.4343481E-05    9.4688506E+03
  -4.370   500.000    9.312E-04    3.0810198E+04   -1.8569876E-04   -2.6015005E-05    3.0810198E+04    4.5059024E-05    7.9266572E+03
  -4.360   500.000    7.651E-04    2.5796284E+04   -2.3420216E-04   -2.1505522E-05    2.5796284E+04    3.7248425E-05    6.6164819E+03
  -4.350   500.000    6.266E-04    2.1450495E+04   -2.9537781E-04   -1.7747751E-05    2.1450495E+04    3.0739820E-05    5.5057003E+03
  -4.340   500.000    5.115E-04    1.7719418E+04   -3.7253581E-04   -1.4636606E-05    1.7719418E+04    2.5351194E-05    4.5662712E+03
  -4.330   500.000    4.162E-04    1.4548653E+04   -4.6985103E-04   -1.2069678E-05    1.4548652E+04    2.0905175E-05    3.7740929E+03
  -4.320   500.000    3.376E-04    1.1881363E+04   -5.9258901E-04   -9.9543433E-06    1.1881363E+04    1.7241332E-05    3.1084501E+03
  -4.310   500.000    2.728E-04    9.6592343E+03   -7.4739086E-04   -8.2118118E-06    9.6592335E+03    1.4223198E-05    2.5515085E+03
  -4.300   500.000    2.197E-04    7.8244908E+03   -9.4263259E-04   -6.7780005E-06    7.8244897E+03    1.1739780E-05    2.0878567E+03
  -4.290   500.000    1.763E-04    6.3220210E+03   -1.1888783E-03   -5.6021497E-06    6.3220197E+03    9.7031585E-06    1.7041161E+03
  -4.280   500.000    1.408E-04    5.1010658E+03   -1.4994519E-03   -4.6444140E-06    5.1010641E+03    8.0443214E-06    1.3886342E+03
  -4.270   500.000    1.118E-04    4.1162905E+03   -1.8911578E-03   -3.8734148E-06    4.1162883E+03    6.7089195E-06    1.1312640E+03
  -4.260   500.000    8.807E-05    3.3282708E+03   -2.3851902E-03   -3.2642886E-06    3.3282681E+03    5.6538882E-06    9.2321375E+02
  -4.250   500.000    6.864E-05    2.7035208E+03   -3.0082801E-03   -2.7973780E-06    2.7035173E+03    4.8451802E-06    7.5694438E+02
  -4.240   500.000    5.257E-05    2.2142169E+03   -3.7941411E-03   -2.4574850E-06    2.2142125E+03    4.2564720E-06    6.2609209E+02
  -4.230   500.000    3.913E-05    1.8377556E+03   -4.7852939E-03   -2.2335291E-06    1.8377501E+03    3.8685719E-06    5.2540219E+02
  -4.220   500.000    2.766E-05    1.5562492E+03   -6.0353666E-03   -2.1184660E-06    1.5562422E+03    3.6692788E-06    4.5066675E+02
  -4.210   500.000    1.760E-05    1.3560350E+03   -7.6119963E-03   -2.1093661E-06    1.3560262E+03    3.6535187E-06    3.9866584E+02
  -4.200   500.000    8.429E-06    1.2272458E+03   -9.6004880E-03   -2.2076029E-06    1.2272347E+03    3.8236709E-06    3.6711620E+02
  -4.190   500.000   -3.148E-07    1.1634709E+03   -1.2108430E-02   -2.4191287E-06    1.1634569E+03    4.1900447E-06    3.5463235E+02
  -4.180   500.000   -9.088E-06    1.1615228E+03   -1.5271513E-02   -2.7548288E-06    1.1615052E+03    4.7714942E-06    3.6070561E+02
  -4.170   500.000   -1.835E-05    1.2213195E+03   -1.9260873E-02   -3.2309460E-06    1.2212973E+03    5.5961527E-06    3.8570504E+02
  -4.160   500.000   -2.857E-05    1.3458857E+03   -2.4292343E-02   -3.8695457E-06    1.3458577E+03    6.7022387E-06    4.3090371E+02
  -4.150   500.000   -4.030E-05    1.5414739E+03   -3.0638132E-02   -4.6989630E-06    1.5414386E+03    8.1388300E-06    4.9853177E+02
  -4.140   500.000   -5.412E-05    1.8178056E+03   -3.8641542E-02   -5.7541207E-06    1.8177610E+03    9.9664143E-06    5.9185673E+02
  -4.130   500.000   -7.074E-05    2.1884276E+03   -4.8735534E-02   -7.0765362E-06    2.1883714E+03    1.2256902E-05    7.1528905E+02
  -4.120   500.000   -9.099E-05    2.6711758E+03   -6.1466132E-02   -8.7137345E-06    2.6711049E+03    1.5092608E-05    8.7450920E+02
  -4.110   500.000   -1.158E-04    3.2887274E+03   -7.7521936E-02   -1.0717657E-05    3.2886379E+03    1.8563499E-05    1.0766095E+03
  -4.100   500.000   -1.465E-04    4.0692144E+03   -9.7771334E-02   -1.3141509E-05    4.0691015E+03    2.2761727E-05    1.3302412E+03
  -4.090   500.000   -1.843E-04    5.0468533E+03   -1.2330941E-01   -1.6034349E-05    5.0467109E+03    2.7772264E-05    1.6457544E+03
  -4.080   500.000   -2.309E-04    6.2625320E+03   -1.5551705E-01   -1.9432661E-05    6.2623524E+03    3.3658302E-05    2.0353193E+03
  -4.070   500.000   -2.883E-04    7.7642839E+03   -1.9613551E-01   -2.3348258E-05    7.7640574E+03    4.0440302E-05    2.5130147E+03
  -4.060   500.000   -3.589E-04    9.6075862E+03   -2.4736025E-01   -2.7752348E-05    9.6073006E+03    4.8068391E-05    3.0948818E+03
  -4.050   500.000   -4.452E-04    1.1855451E+04   -3.1195924E-01   -3.2556559E-05    1.1855091E+04    5.6389508E-05    3.7989432E+03
  -4.040   500.000   -5.503E-04    1.4578356E+04   -3.9342195E-01   -3.7593376E-05    1.4577901E+04    6.5113504E-05    4.6452062E+03
  -4.030   500.000   -6.778E-04    1.7854173E+04   -4.9614681E-01   -4.2600415E-05    1.7853601E+04    7.3785918E-05    5.6556775E+03
  -4.020   500.000   -8.315E-04    2.1768373E+04   -6.2567723E-01   -4.7214717E-05    2.1767651E+04    8.1778083E-05    6.8544326E+03
  -4.010   500.000   -1.016E-03    2.6414824E+04   -7.8899821E-01   -5.0983258E-05    2.6413913E+04    8.8305337E-05    8.2677925E+03
  -4.000   500.000   -1.236E-03    3.1897407E+04   -9.9490918E-01   -5.3393079E-05    3.1896259E+04    9.2479207E-05    9.9246681E+03
  -3.990   500.000   -1.496E-03    3.8332320E+04   -1.2544919E+00   -5.3918398E-05    3.8330872E+04    9.3389010E-05    1.1857128E+04
  -3.980   500.000   -1.804E-03    4.5850469E+04   -1.5816970E+00   -5.2074749E-05    4.5848643E+04    9.0195626E-05    1.4101222E+04
  -3.970   500.000   -2.165E-03    5.4599024E+04   -1.9940781E+00   -4.7465478E-05    5.4596722E+04    8.2212022E-05    1.6698040E+04
  -3.960   500.000   -2.587E-03    6.4741331E+04   -2.5137091E+00   -3.9807658E-05    6.4738428E+04    6.8948156E-05    1.9694919E+04
  -3.950   500.000   -3.079E-03    7.6455149E+04   -3.1683261E+00   -2.8933914E-05    7.6451491E+04    5.0114118E-05    2.3146635E+04
  -3.940   500.000   -3.648E-03    8.9930339E+04   -3.9927464E+00   -1.4779891E-05    8.9925729E+04    2.5598438E-05    2.7116429E+04
  -3.930   500.000   -4.306E-03    1.0536790E+05   -5.0306219E+00    2.6229737E-06    1.0536209E+05   -4.5444340E-06    3.1676728E+04
  -3.920   500.000   -5.062E-03    1.2298195E+05   -6.3365960E+00    2.3130310E-05    1.2297463E+05   -4.0064449E-05    3.6909515E+04
  -3.910   500.000   -5.929E-03    1.4300475E+05   -7.9789367E+00    4.6436996E-05    1.4299554E+05   -8.0433126E-05    4.2906366E+04
  -3.900   500.000   -6.919E-03    1.6569250E+05   -1.0042723E+01    7.2011681E-05    1.6568090E+05   -1.2473015E-04    4.9768190E+04
  -3.890   500.000   -8.047E-03    1.9132854E+05   -1.2633651E+01    9.9042616E-05    1.9131395E+05   -1.7154952E-04    5.7604718E+04
  -3.880   500.000   -9.325E-03    2.2022081E+05   -1.5882513E+01    1.2642786E-04    2.2020247E+05   -2.1898265E-04    6.6533809E+04
  -3.870   500.000   -1.077E-02    2.5269299E+05   -1.9950350E+01    1.5283347E-04    2.5266995E+05   -2.6471907E-04    7.6680735E+04
  -3.860   500.000   -1.240E-02    2.8907199E+05   -2.5034188E+01    1.7682488E-04    2.8904309E+05   -3.0627404E-04    8.8177705E+04
  -3.850   500.000   -1.422E-02    3.2967672E+05   -3.1373164E+01    1.9705623E-04    3.2964049E+05   -3.4131651E-04    1.0116401E+05
  -3.840   500.000   -1.627E-02    3.7481363E+05   -3.9254574E+01    2.1248558E-04    3.7476830E+05   -3.6804175E-04    1.1578709E+05
  -3.830   500.000   -1.854E-02    4.2478302E+05   -4.9019138E+01    2.2257186E-04    4.2472642E+05   -3.8551262E-04    1.3220484E+05
  -3.820   500.000   -2.107E-02    4.7989651E+05   -6.1064286E+01    2.2740547E-04    4.7982600E+05   -3.9388570E-04    1.5058907E+05
  -3.810   500.000   -2.387E-02    5.4050117E+05   -7.5843827E+01    2.2772921E-04    5.4041359E+05   -3.9444757E-04    1.7113018E+05
  -3.800   500.000   -2.696E-02    6.0700064E+05   -9.3861775E+01    2.2482535E-04    6.0689226E+05   -3.8941923E-04    1.9404256E+05
  -3.790   500.000   -3.037E-02    6.7986092E+05   -1.1565775E+02    2.2027801E-04    6.7972737E+05   -3.8154440E-04    2.1957024E+05
  -3.780   500.000   -3.410E-02    7.5959121E+05   -1.4178135E+02    2.1566297E-04    7.5942750E+05   -3.7355247E-04    2.4799174E+05
  -3.770   500.000   -3.820E-02    8.4669987E+05   -1.7275365E+02    2.1225604E-04    8.4650039E+05   -3.6765318E-04    2.7962291E+05
  -3.760   500.000   -4.267E-02    9.4163709E+05   -2.0901601E+02    2.1086773E-04    9.4139574E+05   -3.6525041E-04    3.1481638E+05
  -3.750   500.000   -4.756E-02    1.0447435E+06   -2.5086943E+02    2.1189309E-04    1.0444538E+06   -3.6702838E-04    3.5395635E+05
  -3.740   500.000   -5.289E-02    1.1562216E+06   -2.9841220E+02    2.1560445E-04    1.1558770E+06   -3.7345879E-04    3.9744804E+05
  -3.730   500.000   -5.868E-02    1.2761373E+06   -3.5148708E+02    2.2262444E-04    1.2757315E+06   -3.8562007E-04    4.4570137E+05
  -3.720   500.000   -6.497E-02    1.4044459E+06   -4.0965135E+02    2.3442714E-04    1.4039729E+06   -4.0606538E-04    4.9910955E+05
  -3.710   500.000   -7.177E-02    1.5410298E+06   -4.7218062E+02    2.5367197E-04    1.5404846E+06   -4.3940100E-04    5.5802358E+05
  -3.700   500.000   -7.911E-02    1.6857361E+06   -5.3811067E+02    2.8421062E-04    1.6851147E+06   -4.9229823E-04    6.2272491E+05
  -3.690   500.000   -8.700E-02    1.8384038E+06   -6.0631201E+02    3.3071433E-04    1.8377037E+06   -5.7284792E-04    6.9339878E+05
  -3.680   500.000   -9.545E-02    1.9988766E+06   -6.7558334E+02    3.9799896E-04    1.9980965E+06   -6.8939140E-04    7.7011183E+05
  -3.670   500.000   -1.045E-01    2.1670007E+06   -7.4474596E+02    4.9021409E-04    2.1661407E+06   -8.4911591E-04    8.5279736E+05
  -3.660   500.000   -1.141E-01    2.3426144E+06   -8.1272277E+02    6.1007691E-04    2.3416760E+06   -1.0567278E-03    9.4125128E+05
  -3.650   500.000   -1.243E-01    2.5255465E+06   -8.7859234E+02    7.5828751E-04    2.5245320E+06   -1.3134396E-03    1.0351410E+06
  -3.640   500.000   -1.350E-01    2.7156366E+06   -9.4161568E+02    9.3320173E-04    2.7145493E+06   -1.6164037E-03    1.1340276E+06
  -3.630   500.000   -1.463E-01    2.9127827E+06   -1.0012396E+03    1.1307931E-03    2.9116266E+06   -1.9586458E-03    1.2374008E+06
  -3.620   500.000   -1.582E-01    3.1169942E+06   -1.0570838E+03    1.3448990E-03    3.1157736E+06   -2.3294922E-03    1.3447232E+06
  -3.610   500.000   -1.706E-01    3.3284105E+06   -1.1089183E+03    1.5676995E-03    3.3271300E+06   -2.7153982E-03    1.4554791E+06
  -3.600   500.000   -1.837E-01    3.5472421E+06   -1.1566379E+03    1.7903137E-03    3.5459065E+06   -3.1009815E-03    1.5692227E+06
  -3.590   500.000   -1.972E-01    3.7736123E+06   -1.2002370E+03    2.0033656E-03    3.7722264E+06   -3.4700026E-03    1.6856207E+06
  -3.580   500.000   -2.114E-01    4.0073210E+06   -1.2397848E+03    2.1974073E-03    4.0058894E+06   -3.8060972E-03    1.8044829E+06
  -3.570   500.000   -2.262E-01    4.2475973E+06   -1.2754030E+03    2.3632093E-03    4.2461246E+06   -4.0932791E-03    1.9257803E+06
  -3.560   500.000   -2.417E-01    4.4929356E+06   -1.3072424E+03    2.4920628E-03    4.4914261E+06   -4.3164647E-03    2.0496474E+06
  -3.550   500.000   -2.578E-01    4.7411086E+06   -1.3354610E+03    2.5762819E-03    4.7395665E+06   -4.4623409E-03    2.1763719E+06
  -3.540   500.000   -2.745E-01    4.9894112E+06   -1.3602025E+03    2.6099742E-03    4.9878406E+06   -4.5207022E-03    2.3063723E+06
  -3.530   500.000   -2.920E-01    5.2351228E+06   -1.3815795E+03    2.5899426E-03    5.2335275E+06   -4.4860111E-03    2.4401672E+06
  -3.520   500.000   -3.103E-01    5.4761002E+06   -1.3996630E+03    2.5164211E-03    5.4744840E+06   -4.3586725E-03    2.5783398E+06
  -3.510   500.000   -3.292E-01    5.7113540E+06   -1.4144787E+03    2.3933858E-03    5.7097207E+06   -4.1455736E-03    2.7214994E+06
  -3.500   500.000   -3.490E-01    5.9414437E+06   -1.4260114E+03    2.2283967E-03    5.9397971E+06   -3.8598088E-03    2.8702424E+06
  -3.490   500.000   -3.695E-01    6.1685556E+06   -1.4342131E+03    2.0321660E-03    6.1668995E+06   -3.5199320E-03    3.0251143E+06
  -3.480   500.000   -3.907E-01    6.3962142E+06   -1.4390133E+03    1.8181325E-03    6.3945526E+06   -3.1492200E-03    3.1865746E+06
  -3.470   500.000   -4.128E-01    6.6286778E+06   -1.4403269E+03    1.6021676E-03    6.6270147E+06   -2.7751629E-03    3.3549671E+06
  -3.460   500.000   -4.357E-01    6.8701588E+06   -1.4380586E+03    1.4022360E-03    6.8684982E+06   -2.4288765E-03    3.5304980E+06
  -3.450   500.000   -4.594E-01    7.1240503E+06   -1.4321028E+03    1.2375971E-03    7.1223966E+06   -2.1437191E-03    3.7132235E+06
  -3.440   500.000   -4.839E-01    7.3923241E+06   -1.4223405E+03    1.1271604E-03    7.3906817E+06   -1.9524426E-03    3.9030495E+06
  -3.430   500.000   -5.093E-01    7.6751987E+06   -1.4086355E+03    1.0869529E-03    7.6735722E+06   -1.8828069E-03    4.0997416E+06
  -3.420   500.000   -5.356E-01    7.9710997E+06   -1.3908303E+03    1.1271719E-03    7.9694937E+06   -1.9524741E-03    4.3029478E+06
  -3.410   500.000   -5.627E-01    8.2768688E+06   -1.3687438E+03    1.2496897E-03    8.2752883E+06   -2.1646866E-03    4.5122284E+06
  -3.400   500.000   -5.908E-01    8.5881429E+06   -1.3421715E+03    1.4469023E-03    8.5865931E+06   -2.5062740E-03    4.7270899E+06
  -3.390   500.000   -6.197E-01    8.8998265E+06   -1.3108900E+03    1.7024223E-03    8.8983128E+06   -2.9488525E-03    4.9470192E+06
  -3.380   500.000   -6.495E-01    9.2065969E+06   -1.2746686E+03    1.9934923E-03    9.2051250E+06   -3.4530050E-03    5.1715114E+06
  -3.370   500.000   -6.801E-01    9.5034054E+06   -1.2332887E+03    2.2944431E-03    9.5019813E+06   -3.9742710E-03    5.4000902E+06
  -3.360   500.000   -7.115E-01    9.7859491E+06   -1.1865741E+03    2.5802753E-03    9.7845789E+06   -4.4693504E-03    5.6323160E+06
  -3.350   500.000   -7.437E-01    1.0051078E+07   -1.1344301E+03    2.8295539E-03    1.0049768E+07   -4.9011165E-03    5.8677835E+06
  -3.340   500.000   -7.766E-01    1.0297092E+07   -1.0768927E+03    3.0261522E-03    1.0295848E+07   -5.2416373E-03    6.1061082E+06
  -3.330   500.000   -8.101E-01    1.0523865E+07   -1.0141798E+03    3.1597829E-03    1.0522694E+07   -5.4730943E-03    6.3469069E+06
  -3.320   500.000   -8.444E-01    1.0732777E+07   -9.4674062E+02    3.2255608E-03    1.0731684E+07   -5.5870263E-03    6.5897759E+06
  -3.310   500.000   -8.792E-01    1.0926443E+07   -8.7529108E+02    3.2230213E-03    1.0925432E+07   -5.5826286E-03    6.8342737E+06
  -3.300   500.000   -9.145E-01    1.1108310E+07   -8.0082626E+02    3.1550447E-03    1.1107385E+07   -5.4648898E-03    7.0799145E+06
  -3.290   500.000   -9.504E-01    1.1282206E+07   -7.2459848E+02    3.0270370E-03    1.1281370E+07   -5.2431734E-03    7.3261802E+06
  -3.280   500.000   -9.867E-01    1.1451917E+07   -6.4805632E+02    2.8465059E-03    1.1451169E+07   -4.9304830E-03    7.5725544E+06
  -3.270   500.000   -1.023E+00    1.1620836E+07   -5.7274633E+02    2.6229278E-03    1.1620174E+07   -4.5432323E-03    7.8185783E+06
  -3.260   500.000   -1.061E+00    1.1791708E+07   -5.0018919E+02    2.3676668E-03    1.1791131E+07   -4.1011044E-03    8.0639225E+06
  -3.250   500.000   -1.098E+00    1.1966455E+07   -4.3175062E+02    2.0937372E-03    1.1965957E+07   -3.6266408E-03    8.3084674E+06
  -3.240   500.000   -1.136E+00    1.2146057E+07   -3.6853069E+02    1.8153666E-03    1.2145632E+07   -3.1444846E-03    8.5523762E+06
  -3.230   500.000   -1.174E+00    1.2330492E+07   -3.1129168E+02    1.5474617E-03    1.2330132E+07   -2.6804551E-03    8.7961463E+06
  -3.220   500.000   -1.213E+00    1.2518730E+07   -2.6043433E+02    1.3050821E-03    1.2518429E+07   -2.2606364E-03    9.0406203E+06
  -3.210   500.000   -1.252E+00    1.2708795E+07   -2.1602057E+02    1.1028939E-03    1.2708546E+07   -1.9104312E-03    9.2869502E+06
  -3.200   500.000   -1.292E+00    1.2897909E+07   -1.7783046E+02    9.5441921E-04    1.2897704E+07   -1.6532602E-03    9.5365212E+06
  -3.190   500.000   -1.332E+00    1.3082725E+07   -1.4543695E+02    8.7088139E-04    1.3082557E+07   -1.5085631E-03    9.7908562E+06
  -3.180   500.000   -1.372E+00    1.3259660E+07   -1.1828285E+02    8.5963952E-04    1.3259523E+07   -1.4890861E-03    1.0051518E+07
  -3.170   500.000   -1.413E+00    1.3425284E+07   -9.5748922E+01    9.2252413E-04    1.3425174E+07   -1.5979996E-03    1.0320015E+07
  -3.160   500.000   -1.455E+00    1.3576751E+07   -7.7207131E+01    1.0546374E-03    1.3576661E+07   -1.8268203E-03    1.0597720E+07
  -3.150   500.000   -1.497E+00    1.3712200E+07   -6.2057927E+01    1.2441631E-03    1.3712128E+07   -2.1550819E-03    1.0885794E+07
  -3.140   500.000   -1.540E+00    1.3831100E+07   -4.9753030E+01    1.4734064E-03    1.3831043E+07   -2.5521358E-03    1.1185127E+07
  -3.130   500.000   -1.583E+00    1.3934458E+07   -3.9806788E+01    1.7208031E-03    1.3934413E+07   -2.9806320E-03    1.1496310E+07
  -3.120   500.000   -1.627E+00    1.4024828E+07   -3.1799340E+01    1.9632664E-03    1.4024791E+07   -3.4005827E-03    1.1819605E+07
  -3.110   500.000   -1.671E+00    1.4106068E+07   -2.5374451E+01    2.1781811E-03    1.4106039E+07   -3.7728176E-03    1.2154925E+07
  -3.100   500.000   -1.716E+00    1.4182863E+07   -2.0234293E+01    2.3446539E-03    1.4182840E+07   -4.0611484E-03    1.2501810E+07
  -3.090   500.000   -1.761E+00    1.4260052E+07   -1.6132767E+01    2.4441066E-03    1.4260033E+07   -4.2333969E-03    1.2859421E+07
  -3.080   500.000   -1.806E+00    1.4341914E+07   -1.2868442E+01    2.4606810E-03    1.4341899E+07   -4.2620963E-03    1.3226579E+07
  -3.070   500.000   -1.852E+00    1.4431547E+07   -1.0277764E+01    2.3819919E-03    1.4431535E+07   -4.1257945E-03    1.3601844E+07
  -3.060   500.000   -1.898E+00    1.4530460E+07   -8.2288661E+00    2.2004853E-03    1.4530450E+07   -3.8114082E-03    1.3983620E+07
  -3.050   500.000   -1.944E+00    1.4638471E+07   -6.6161563E+00    1.9152373E-03    1.4638463E+07   -3.3173367E-03    1.4370257E+07
  -3.040   500.000   -1.990E+00    1.4753925E+07   -5.3557094E+00    1.5336669E-03    1.4753918E+07   -2.6564304E-03    1.4760131E+07
  -3.030   500.000   -2.036E+00    1.4874181E+07   -4.3814310E+00    1.0725114E-03    1.4874176E+07   -1.8576792E-03    1.5151721E+07
  -3.020   500.000   -2.082E+00    1.4996262E+07   -3.6419298E+00    5.5749526E-04    1.4996258E+07   -9.6563901E-04    1.5543683E+07
  -3.010   500.000   -2.128E+00    1.5117501E+07   -3.0980212E+00    2.1370431E-05    1.5117497E+07   -3.7037989E-05    1.5934927E+07
  -3.000   500.000   -2.175E+00    1.5236025E+07   -2.7207857E+00   -4.9964641E-04    1.5236022E+07    8.6539476E-04    1.6324678E+07
# T(K) = 700.000 Npoints =     301 V(cm^3) =  1.145E-21
  -5.500   700.000    2.932E+00    1.6978310E+07   -1.2088523E+03    2.6038586E-03    1.6976914E+07   -4.5099979E-03    1.8280354E+07
  -5.490   700.000    2.887E+00    1.6966935E+07   -1.1331574E+03    2.6957985E-03    1.6965626E+07   -4.6692428E-03    1.8276405E+07
  -5.480   700.000    2.842E+00    1.6937394E+07   -1.0542298E+03    2.8005312E-03    1.6936177E+07   -4.8506455E-03    1.8251883E+07
  -5.470   700.000    2.798E+00    1.6891805E+07   -9.7354233E+02    2.9133451E-03    1.6890681E+07   -5.0460452E-03    1.8208998E+07
  -5.460   700.000    2.754E+00    1.6832130E+07   -8.9251699E+02    3.0288083E-03    1.6831100E+07   -5.2460335E-03    1.8149707E+07
  -5.450   700.000    2.709E+00    1.6760196E+07   -8.1247610E+02    3.1409937E-03    1.6759258E+07   -5.4403447E-03    1.8075737E+07
  -5.440   700.000    2.665E+00    1.6677711E+07   -7.3459936E+02    3.2438086E-03    1.6676863E+07   -5.6184256E-03    1.7988604E+07
  -5.430   700.000    2.622E+00    1.6586268E+07   -6.5988998E+02    3.3313980E-03    1.6585506E+07   -5.7701353E-03    1.7889649E+07
  -5.420   700.000    2.578E+00    1.6487345E+07   -5.8915274E+02    3.3985788E-03    1.6486665E+07   -5.8864961E-03    1.7780063E+07
  -5.410   700.000    2.534E+00    1.6382296E+07   -5.2298529E+02    3.4412449E-03    1.6381692E+07   -5.9603963E-03    1.7660908E+07
  -5.400   700.000    2.491E+00    1.6272343E+07   -4.6178218E+02    3.4566912E-03    1.6271810E+07   -5.9871504E-03    1.7533143E+07
  -5.390   700.000    2.448E+00    1.6158564E+07   -4.0574976E+02    3.4438084E-03    1.6158095E+07   -5.9648371E-03    1.7397634E+07
  -5.380   700.000    2.405E+00    1.6041884E+07   -3.5492931E+02    3.4031234E-03    1.6041474E+07   -5.8943689E-03    1.7255159E+07
  -5.370   700.000    2.362E+00    1.5923063E+07   -3.0922497E+02    3.3366784E-03    1.5922706E+07   -5.7792830E-03    1.7106408E+07
  -5.360   700.000    2.320E+00    1.5802682E+07   -2.6843367E+02    3.2477666E-03    1.5802372E+07   -5.6252835E-03    1.6951976E+07
  -5.350   700.000    2.278E+00    1.5681134E+07   -2.3227413E+02    3.1405617E-03    1.5680865E+07   -5.4395994E-03    1.6792350E+07
  -5.340   700.000    2.235E+00    1.5558609E+07   -2.0041347E+02    3.0196927E-03    1.5558377E+07   -5.2302482E-03    1.6627895E+07
  -5.330   700.000    2.193E+00    1.5435089E+07   -1.7248988E+02    2.8898207E-03    1.5434890E+07   -5.0053036E-03    1.6458843E+07
  -5.320   700.000    2.152E+00    1.5310347E+07   -1.4813118E+02    2.7552735E-03    1.5310176E+07   -4.7722610E-03    1.6285281E+07
  -5.310   700.000    2.110E+00    1.5183953E+07   -1.2696905E+02    2.6197761E-03    1.5183806E+07   -4.5375727E-03    1.6107146E+07
  -5.300   700.000    2.069E+00    1.5055291E+07   -1.0864938E+02    2.4863018E-03    1.5055166E+07   -4.3063885E-03    1.5924227E+07
  -5.290   700.000    2.027E+00    1.4923598E+07   -9.2839310E+01    2.3570406E-03    1.4923491E+07   -4.0825016E-03    1.5736171E+07
  -5.280   700.000    1.986E+00    1.4787998E+07   -7.9231442E+01    2.2334645E-03    1.4787907E+07   -3.8684614E-03    1.5542498E+07
  -5.270   700.000    1.944E+00    1.4647561E+07   -6.7545967E+01    2.1164549E-03    1.4647483E+07   -3.6657947E-03    1.5342620E+07
  -5.260   700.000    1.903E+00    1.4501351E+07   -5.7531155E+01    2.0064547E-03    1.4501285E+07   -3.4752687E-03    1.5135867E+07
  -5.250   700.000    1.861E+00    1.4348481E+07   -4.8962721E+01    1.9036134E-03    1.4348425E+07   -3.2971422E-03    1.4921517E+07
  -5.240   700.000    1.820E+00    1.4188156E+07   -4.1642434E+01    1.8079037E-03    1.4188108E+07   -3.1313680E-03    1.4698828E+07
  -5.230   700.000    1.778E+00    1.4019705E+07   -3.5396256E+01    1.7192042E-03    1.4019664E+07   -2.9777360E-03    1.4467068E+07
  -5.220   700.000    1.736E+00    1.3842598E+07   -3.0072241E+01    1.6373512E-03    1.3842563E+07   -2.8359623E-03    1.4225552E+07
  -5.210   700.000    1.694E+00    1.3656453E+07   -2.5538356E+01    1.5621692E-03    1.3656424E+07   -2.7057431E-03    1.3973674E+07
  -5.200   700.000    1.651E+00    1.3461023E+07   -2.1680320E+01    1.4934933E-03    1.3460998E+07   -2.5867929E-03    1.3710935E+07
  -5.190   700.000    1.609E+00    1.3256181E+07   -1.8399543E+01    1.4311902E-03    1.3256160E+07   -2.4788807E-03    1.3436977E+07
  -5.180   700.000    1.566E+00    1.3041899E+07   -1.5611214E+01    1.3751792E-03    1.3041881E+07   -2.3818666E-03    1.3151598E+07
  -5.170   700.000    1.522E+00    1.2818225E+07   -1.3242542E+01    1.3254470E-03    1.2818210E+07   -2.2957280E-03    1.2854775E+07
  -5.160   700.000    1.479E+00    1.2585270E+07   -1.1231181E+01    1.2820459E-03    1.2585257E+07   -2.2205551E-03    1.2546673E+07
  -5.150   700.000    1.435E+00    1.2343192E+07   -9.5238152E+00    1.2450608E-03    1.2343181E+07   -2.1564951E-03    1.2227646E+07
  -5.140   700.000    1.391E+00    1.2092186E+07   -8.0749226E+00    1.2145429E-03    1.2092177E+07   -2.1036366E-03    1.1898234E+07
  -5.130   700.000    1.347E+00    1.1832482E+07   -6.8456777E+00    1.1904138E-03    1.1832474E+07   -2.0618439E-03    1.1559149E+07
  -5.120   700.000    1.302E+00    1.1564330E+07   -5.8030014E+00    1.1723610E-03    1.1564323E+07   -2.0305758E-03    1.1211256E+07
  -5.110   700.000    1.258E+00    1.1288001E+07   -4.9187347E+00    1.1597513E-03    1.1287995E+07   -2.0087355E-03    1.0855545E+07
  -5.100   700.000    1.213E+00    1.1003778E+07   -4.1689244E+00    1.1515898E-03    1.1003774E+07   -1.9945998E-03    1.0493102E+07
  -5.090   700.000    1.169E+00    1.0711960E+07   -3.5332072E+00    1.1465420E-03    1.0711956E+07   -1.9858573E-03    1.0125077E+07
  -5.080   700.000    1.125E+00    1.0412866E+07   -2.9942810E+00    1.1430212E-03    1.0412863E+07   -1.9797596E-03    9.7526554E+06
  -5.070   700.000    1.081E+00    1.0106855E+07   -2.5374509E+00    1.1393251E-03    1.0106852E+07   -1.9733585E-03    9.3770342E+06
  -5.060   700.000    1.037E+00    9.7943477E+06   -2.1502413E+00    1.1337958E-03    9.7943452E+06   -1.9637823E-03    8.9994038E+06
  -5.050   700.000    9.943E-01    9.4758617E+06   -1.8220637E+00    1.1249715E-03    9.4758596E+06   -1.9484992E-03    8.6209379E+06
  -5.040   700.000    9.517E-01    9.1520401E+06   -1.5439341E+00    1.1117051E-03    9.1520383E+06   -1.9255221E-03    8.2427911E+06
  -5.030   700.000    9.096E-01    8.8236794E+06   -1.3082312E+00    1.0932349E-03    8.8236779E+06   -1.8935320E-03    7.8661021E+06
  -5.020   700.000    8.683E-01    8.4917453E+06   -1.1084911E+00    1.0692053E-03    8.4917440E+06   -1.8519128E-03    7.4920006E+06
  -5.010   700.000    8.277E-01    8.1573730E+06   -9.3923261E-01    1.0396441E-03    8.1573719E+06   -1.8007125E-03    7.1216146E+06
  -5.000   700.000    7.879E-01    7.8218490E+06   -7.9580810E-01    1.0049086E-03    7.8218481E+06   -1.7405504E-03    6.7560758E+06
  -4.990   700.000    7.489E-01    7.4865760E+06   -6.7427755E-01    9.6561281E-04    7.4865752E+06   -1.6724896E-03    6.3965192E+06
  -4.980   700.000    7.109E-01    7.1530210E+06   -5.7130094E-01    9.2254500E-04    7.1530203E+06   -1.5978956E-03    6.0440773E+06
  -4.970   700.000    6.740E-01    6.8226554E+06   -4.8404723E-01    8.7658369E-04    6.8226549E+06   -1.5182900E-03    5.6998673E+06
  -4.960   700.000    6.380E-01    6.4968926E+06   -4.1011687E-01    8.2861813E-04    6.4968921E+06   -1.4352130E-03    5.3649719E+06
  -4.950   700.000    6.032E-01    6.1770311E+06   -3.4747625E-01    7.7947938E-04    6.1770307E+06   -1.3501040E-03    5.0404161E+06
  -4.940   700.000    5.695E-01    5.8642132E+06   -2.9440192E-01    7.2988827E-04    5.8642129E+06   -1.2642115E-03    4.7271410E+06
  -4.930   700.000    5.370E-01    5.5594026E+06   -2.4943337E-01    6.8042511E-04    5.5594023E+06   -1.1785406E-03    4.4259786E+06
  -4.920   700.000    5.058E-01    5.2633839E+06   -2.1133296E-01    6.3152354E-04    5.2633836E+06   -1.0938424E-03    4.1376286E+06
  -4.910   700.000    4.758E-01    4.9767835E+06   -1.7905193E-01    5.8348692E-04    4.9767832E+06   -1.0106422E-03    3.8626398E+06
  -4.900   700.000    4.471E-01    4.7001039E+06   -1.5170164E-01    5.3652223E-04    4.7001037E+06   -9.2929864E-04    3.6013978E+06
  -4.890   700.000    4.196E-01    4.4337644E+06   -1.2852908E-01    4.9078386E-04    4.4337643E+06   -8.5007899E-04    3.3541193E+06
  -4.880   700.000    3.935E-01    4.1781374E+06   -1.0889623E-01    4.4641862E-04    4.1781373E+06   -7.7323755E-04    3.1208532E+06
  -4.870   700.000    3.686E-01    3.9335718E+06   -9.2262484E-02    4.0360368E-04    3.9335717E+06   -6.9908119E-04    2.9014897E+06
  -4.860   700.000    3.450E-01    3.7003991E+06   -7.8169805E-02    3.6257037E-04    3.7003990E+06   -6.2801055E-04    2.6957743E+06
  -4.850   700.000    3.226E-01    3.4789204E+06   -6.6230102E-02    3.2360867E-04    3.4789204E+06   -5.6052787E-04    2.5033273E+06
  -4.840   700.000    3.015E-01    3.2693776E+06   -5.6114562E-02    2.8705049E-04    3.2693776E+06   -4.9720810E-04    2.3236665E+06
  -4.830   700.000    2.815E-01    3.0719168E+06   -4.7544598E-02    2.5323395E-04    3.0719167E+06   -4.3863682E-04    2.1562308E+06
  -4.820   700.000    2.627E-01    2.8865507E+06   -4.0284184E-02    2.2245503E-04    2.8865506E+06   -3.8532673E-04    2.0004037E+06
  -4.810   700.000    2.450E-01    2.7131293E+06   -3.4133354E-02    1.9491747E-04    2.7131293E+06   -3.3763071E-04    1.8555345E+06
  -4.800   700.000    2.283E-01    2.5513245E+06   -2.8922699E-02    1.7069241E-04    2.5513244E+06   -2.9567198E-04    1.7209569E+06
  -4.790   700.000    2.126E-01    2.4006307E+06   -2.4508703E-02    1.4969845E-04    2.4006307E+06   -2.5930956E-04    1.5960031E+06
  -4.780   700.000    1.978E-01    2.2603851E+06   -2.0769789E-02    1.3170745E-04    2.2603851E+06   -2.2814833E-04    1.4800145E+06
  -4.770   700.000    1.840E-01    2.1298015E+06   -1.7602973E-02    1.1637544E-04    2.1298015E+06   -2.0159248E-04    1.3723497E+06
  -4.760   700.000    1.710E-01    2.0080155E+06   -1.4921029E-02    1.0329092E-04    2.0080155E+06   -1.7892932E-04    1.2723891E+06
  -4.750   700.000    1.588E-01    1.8941343E+06   -1.2650085E-02    9.2029193E-05    1.8941343E+06   -1.5942322E-04    1.1795387E+06
  -4.740   700.000    1.474E-01    1.7872833E+06   -1.0727589E-02    8.2199356E-05    1.7872833E+06   -1.4239715E-04    1.0932323E+06
  -4.730   700.000    1.367E-01    1.6866462E+06   -9.1005862E-03    7.3473898E-05    1.6866462E+06   -1.2728382E-04    1.0129338E+06
  -4.720   700.000    1.266E-01    1.5914915E+06   -7.7242614E-03    6.5595838E-05    1.5914915E+06   -1.1363815E-04    9.3813995E+05
  -4.710   700.000    1.172E-01    1.5011874E+06   -6.5607037E-03    5.8365320E-05    1.5011874E+06   -1.0111397E-04    8.6838210E+05
  -4.700   700.000    1.084E-01    1.4152030E+06   -5.5778629E-03    5.1613347E-05    1.4152030E+06   -8.9418584E-05    8.0322918E+05
  -4.690   700.000    1.001E-01    1.3331020E+06   -4.7486666E-03    4.5173446E-05    1.3331020E+06   -7.8263650E-05    7.4228982E+05
  -4.680   700.000    9.230E-02    1.2545296E+06   -4.0502744E-03    3.8861560E-05    1.2545296E+06   -6.7330385E-05    6.8521398E+05
  -4.670   700.000    8.500E-02    1.1791995E+06   -3.4634489E-03    3.2470830E-05    1.1791995E+06   -5.6260501E-05    6.3169381E+05
  -4.660   700.000    7.816E-02    1.1068814E+06   -2.9720259E-03    2.5782552E-05    1.1068814E+06   -4.4675204E-05    5.8146314E+05
  -4.650   700.000    7.174E-02    1.0373913E+06   -2.5624688E-03    1.8589624E-05    1.0373913E+06   -3.2215789E-05    5.3429580E+05
  -4.640   700.000    6.572E-02    9.7058514E+05   -2.2234963E-03    1.0725528E-05    9.7058514E+05   -1.8593849E-05    4.9000247E+05
  -4.630   700.000    6.009E-02    9.0635370E+05   -1.9457712E-03    2.0912798E-06    9.0635370E+05   -3.6379445E-06    4.4842645E+05
  -4.620   700.000    5.482E-02    8.4461902E+05   -1.7216435E-03   -7.3257378E-06    8.4461902E+05    1.2673767E-05    4.0943852E+05
  -4.610   700.000    4.990E-02    7.8533046E+05   -1.5449395E-03   -1.7444269E-05    7.8533046E+05    3.0200538E-05    3.7293136E+05
  -4.600   700.000    4.531E-02    7.2846024E+05   -1.4107917E-03   -2.8093274E-05    7.2846024E+05    4.8646113E-05    3.3881379E+05
  -4.590   700.000    4.104E-02    6.7399824E+05   -1.3155050E-03   -3.9025603E-05    6.7399824E+05    6.7582406E-05    3.0700543E+05
  -4.580   700.000    3.707E-02    6.2194670E+05   -1.2564547E-03   -4.9938164E-05    6.2194670E+05    8.6484441E-05    2.7743194E+05
  -4.570   700.000    3.340E-02    5.7231524E+05   -1.2320142E-03   -6.0495519E-05    5.7231524E+05    1.0477121E-04    2.5002099E+05
  -4.560   700.000    3.001E-02    5.2511677E+05   -1.2415102E-03   -7.0354537E-05    5.2511677E+05    1.2184840E-04    2.2469924E+05
  -4.550   700.000    2.689E-02    4.8036450E+05   -1.2852044E-03   -7.9188562E-05    4.8036450E+05    1.3715021E-04    2.0139015E+05
  -4.540   700.000    2.403E-02    4.3806997E+05   -1.3643003E-03   -8.6710002E-05    4.3806997E+05    1.5017852E-04    1.8001268E+05
  -4.530   700.000    2.142E-02    3.9824146E+05   -1.4809766E-03   -9.2690232E-05    3.9824146E+05    1.6053733E-04    1.6048066E+05
  -4.520   700.000    1.903E-02    3.6088238E+05   -1.6384472E-03   -9.6975352E-05    3.6088238E+05    1.6796008E-04    1.4270276E+05
  -4.510   700.000    1.687E-02    3.2598907E+05   -1.8410498E-03   -9.9496111E-05    3.2598907E+05    1.7232682E-04    1.2658295E+05
  -4.500   700.000    1.492E-02    2.9354787E+05   -2.0943651E-03   -1.0027051E-04    2.9354786E+05    1.7366873E-04    1.1202131E+05
  -4.490   700.000    1.316E-02    2.6353173E+05   -2.4053707E-03   -9.9398457E-05    2.6353173E+05    1.7215884E-04    9.8915131E+04
  -4.480   700.000    1.158E-02    2.3589690E+05   -2.7826335E-03   -9.7048970E-05    2.3589690E+05    1.6808991E-04    8.7160168E+04
  -4.470   700.000    1.017E-02    2.1058037E+05   -3.2365451E-03   -9.3441918E-05    2.1058037E+05    1.6184277E-04    7.6652008E+04
  -4.460   700.000    8.907E-03    1.8749879E+05   -3.7796087E-03   -8.8826948E-05    1.8749879E+05    1.5384983E-04    6.7287477E+04
  -4.450   700.000    7.787E-03    1.6654930E+05   -4.4267831E-03   -8.3462670E-05    1.6654929E+05    1.4455900E-04    5.8965981E+04
  -4.440   700.000    6.795E-03    1.4761217E+05   -5.1958947E-03   -7.7598666E-05    1.4761216E+05    1.3440258E-04    5.1590713E+04
  -4.430   700.000    5.918E-03    1.3055508E+05   -6.1081285E-03   -7.1461973E-05    1.3055507E+05    1.2377381E-04    4.5069677E+04
  -4.420   700.000    5.144E-03    1.1523825E+05   -7.1886120E-03   -6.5248589E-05    1.1523824E+05    1.1301217E-04    3.9316471E+04
  -4.410   700.000    4.464E-03    1.0151982E+05   -8.4671066E-03   -5.9119623E-05    1.0151981E+05    1.0239672E-04    3.4250805E+04
  -4.400   700.000    3.867E-03    8.9260594E+04   -9.9788279E-03   -5.3201085E-05    8.9260582E+04    9.2145711E-05    2.9798782E+04
  -4.390   700.000    3.344E-03    7.8327841E+04   -1.1765415E-02   -4.7586153E-05    7.8327827E+04    8.2420539E-05    2.5892942E+04
  -4.380   700.000    2.887E-03    6.8597745E+04   -1.3876078E-02   -4.2338837E-05    6.8597729E+04    7.3332073E-05    2.2472128E+04
  -4.370   700.000    2.488E-03    5.9956581E+04   -1.6368952E-02   -3.7498258E-05    5.9956563E+04    6.4948077E-05    1.9481215E+04
  -4.360   700.000    2.140E-03    5.2300838E+04   -1.9312700E-02   -3.3083072E-05    5.2300816E+04    5.7300865E-05    1.6870749E+04
  -4.350   700.000    1.838E-03    4.5536599E+04   -2.2788402E-02   -2.9095739E-05    4.5536573E+04    5.0394701E-05    1.4596535E+04
  -4.340   700.000    1.575E-03    3.9578563E+04   -2.6891786E-02   -2.5526513E-05    3.9578532E+04    4.4212706E-05    1.2619211E+04
  -4.330   700.000    1.347E-03    3.4348977E+04   -3.1735868E-02   -2.2357030E-05    3.4348940E+04    3.8723073E-05    1.0903824E+04
  -4.320   700.000    1.150E-03    2.9776698E+04   -3.7454062E-02   -1.9563416E-05    2.9776654E+04    3.3884455E-05    9.4194149E+03
  -4.310   700.000    9.782E-04    2.5796473E+04   -4.4203849E-02   -1.7118863E-05    2.5796422E+04    2.9650418E-05    8.1386454E+03
  -4.300   700.000    8.296E-04    2.2348462E+04   -5.2171115E-02   -1.4995636E-05    2.2348402E+04    2.5972927E-05    7.0374399E+03
  -4.290   700.000    7.007E-04    1.9377962E+04   -6.1575268E-02   -1.3166556E-05    1.9377891E+04    2.2804907E-05    6.0946705E+03
  -4.280   700.000    5.885E-04    1.6835268E+04   -7.2675274E-02   -1.1606012E-05    1.6835184E+04    2.0101997E-05    5.2918747E+03
  -4.270   700.000    4.907E-04    1.4675623E+04   -8.5776778E-02   -1.0290598E-05    1.4675524E+04    1.7823660E-05    4.6130076E+03
  -4.260   700.000    4.050E-04    1.2859196E+04   -1.0124052E-01   -9.1994792E-06    1.2859079E+04    1.5933810E-05    4.0442285E+03
  -4.250   700.000    3.294E-04    1.1351049E+04   -1.1949224E-01   -8.3145634E-06    1.1350911E+04    1.4401110E-05    3.5737189E+03
  -4.240   700.000    2.620E-04    1.0121102E+04   -1.4103441E-01   -7.6205487E-06    1.0120939E+04    1.3199056E-05    3.1915290E+03
  -4.230   700.000    2.012E-04    9.1440606E+03   -1.6645999E-01   -7.1048945E-06    9.1438684E+03    1.2305929E-05    2.8894509E+03
  -4.220   700.000    1.456E-04    8.3993409E+03   -1.9646879E-01   -6.7577370E-06    8.3991140E+03    1.1704643E-05    2.6609158E+03
  -4.210   700.000    9.370E-05    7.8709841E+03   -2.3188662E-01   -6.5717590E-06    7.8707163E+03    1.1382526E-05    2.5009124E+03
  -4.200   700.000    4.418E-05    7.5475835E+03   -2.7368796E-01   -6.5420079E-06    7.5472674E+03    1.1330999E-05    2.4059266E+03
  -4.190   700.000   -4.218E-06    7.4222325E+03   -3.2302272E-01   -6.6656476E-06    7.4218595E+03    1.1545150E-05    2.3739014E+03
  -4.180   700.000   -5.275E-05    7.4925070E+03   -3.8124768E-01   -6.9416183E-06    7.4920667E+03    1.2023144E-05    2.4042149E+03
  -4.170   700.000   -1.027E-04    7.7604885E+03   -4.4996369E-01   -7.3701710E-06    7.7599689E+03    1.2765415E-05    2.4976787E+03
  -4.160   700.000   -1.553E-04    8.2328359E+03   -5.3105937E-01   -7.9522360E-06    8.2322227E+03    1.3773575E-05    2.6565542E+03
  -4.150   700.000   -2.119E-04    8.9209077E+03   -6.2676274E-01   -8.6885751E-06    8.9201840E+03    1.5048943E-05    2.8845870E+03
  -4.140   700.000   -2.740E-04    9.8409342E+03   -7.3970185E-01   -9.5786611E-06    9.8400800E+03    1.6590605E-05    3.1870583E+03
  -4.130   700.000   -3.431E-04    1.1014239E+04   -8.7297639E-01   -1.0619230E-05    1.1013231E+04    1.8392909E-05    3.5708536E+03
  -4.120   700.000   -4.208E-04    1.2467503E+04   -1.0302417E+00   -1.1802457E-05    1.2466313E+04    2.0442297E-05    4.0445446E+03
  -4.110   700.000   -5.092E-04    1.4233065E+04   -1.2158078E+00   -1.3113715E-05    1.4231661E+04    2.2713441E-05    4.6184858E+03
  -4.100   700.000   -6.101E-04    1.6349250E+04   -1.4347558E+00   -1.4528951E-05    1.6347594E+04    2.5164674E-05    5.3049227E+03
  -4.090   700.000   -7.260E-04    1.8860719E+04   -1.6930740E+00   -1.6011710E-05    1.8858764E+04    2.7732854E-05    6.1181111E+03
  -4.080   700.000   -8.594E-04    2.1818826E+04   -1.9978190E+00   -1.7509996E-05    2.1816519E+04    3.0327922E-05    7.0744486E+03
  -4.070   700.000   -1.013E-03    2.5281992E+04   -2.3573026E+00   -1.8953220E-05    2.5279270E+04    3.2827611E-05    8.1926178E+03
  -4.060   700.000   -1.191E-03    2.9316080E+04   -2.7813125E+00   -2.0249614E-05    2.9312869E+04    3.5072977E-05    9.4937454E+03
  -4.050   700.000   -1.395E-03    3.3994787E+04   -3.2813689E+00   -2.1284617E-05    3.3990998E+04    3.6865591E-05    1.1001581E+04
  -4.040   700.000   -1.630E-03    3.9400054E+04   -3.8710245E+00   -2.1920773E-05    3.9395584E+04    3.7967369E-05    1.2742704E+04
  -4.030   700.000   -1.901E-03    4.5622516E+04   -4.5662135E+00   -2.1999661E-05    4.5617244E+04    3.8103919E-05    1.4746755E+04
  -4.020   700.000   -2.212E-03    5.2761978E+04   -5.3856571E+00   -2.1346249E-05    5.2755759E+04    3.6972072E-05    1.7046721E+04
  -4.010   700.000   -2.569E-03    6.0927930E+04   -6.3513326E+00   -1.9775753E-05    6.0920596E+04    3.4251774E-05    1.9679251E+04
  -4.000   700.000   -2.977E-03    7.0240079E+04   -7.4890145E+00   -1.7102764E-05    7.0231431E+04    2.9621882E-05    2.2685025E+04
  -3.990   700.000   -3.442E-03    8.0828862E+04   -8.8288953E+00   -1.3152001E-05    8.0818667E+04    2.2778800E-05    2.6109173E+04
  -3.980   700.000   -3.972E-03    9.2835917E+04   -1.0406295E+01   -7.7698125E-06    9.2823901E+04    1.3456391E-05    3.0001725E+04
  -3.970   700.000   -4.574E-03    1.0641447E+05   -1.2262464E+01   -8.3544996E-07    1.0640031E+05    1.4455101E-06    3.4418090E+04
  -3.960   700.000   -5.257E-03    1.2172961E+05   -1.4445488E+01    7.7287092E-06    1.2171293E+05   -1.3388293E-05    3.9419539E+04
  -3.950   700.000   -6.028E-03    1.3895852E+05   -1.7011294E+01    1.7948555E-05    1.3893888E+05   -3.1089863E-05    4.5073681E+04
  -3.940   700.000   -6.898E-03    1.5829059E+05   -2.0024754E+01    2.9791569E-05    1.5826747E+05   -5.1602884E-05    5.1454900E+04
  -3.930   700.000   -7.877E-03    1.7992749E+05   -2.3560878E+01    4.3162352E-05    1.7990029E+05   -7.4762121E-05    5.8644745E+04
  -3.920   700.000   -8.976E-03    2.0408312E+05   -2.7706075E+01    5.7900822E-05    2.0405113E+05   -1.0029031E-04    6.6732262E+04
  -3.910   700.000   -1.021E-02    2.3098347E+05   -3.2559439E+01    7.3784007E-05    2.3094587E+05   -1.2780126E-04    7.5814280E+04
  -3.900   700.000   -1.158E-02    2.6086615E+05   -3.8234020E+01    9.0532728E-05    2.6082201E+05   -1.5681141E-04    8.5995636E+04
  -3.890   700.000   -1.311E-02    2.9397974E+05   -4.4857971E+01    1.0782456E-04    2.9392794E+05   -1.8676233E-04    9.7389389E+04
  -3.880   700.000   -1.481E-02    3.3058263E+05   -5.2575492E+01    1.2531403E-04    3.3052193E+05   -2.1705563E-04    1.1011704E+05
  -3.870   700.000   -1.670E-02    3.7094184E+05   -6.1547384E+01    1.4265984E-04    3.7087077E+05   -2.4710018E-04    1.2430875E+05
  -3.860   700.000   -1.879E-02    4.1533150E+05   -7.1951049E+01    1.5955761E-04    4.1524841E+05   -2.7636879E-04    1.4010369E+05
  -3.850   700.000   -2.110E-02    4.6403161E+05   -8.3979677E+01    1.7577486E-04    4.6393464E+05   -3.0445879E-04    1.5765039E+05
  -3.840   700.000   -2.363E-02    5.1732685E+05   -9.7840357E+01    1.9118388E-04    5.1721388E+05   -3.3114898E-04    1.7710716E+05
  -3.830   700.000   -2.642E-02    5.7550546E+05   -1.1375081E+02    2.0578779E-04    5.7537412E+05   -3.5644478E-04    1.9864260E+05
  -3.820   700.000   -2.948E-02    6.3885796E+05   -1.3193442E+02    2.1973583E-04    6.3870562E+05   -3.8060469E-04    2.2243595E+05
  -3.810   700.000   -3.282E-02    7.0767515E+05   -1.5261340E+02    2.3332569E-04    7.0749892E+05   -4.0414430E-04    2.4867734E+05
  -3.800   700.000   -3.647E-02    7.8224493E+05   -1.7599984E+02    2.4699341E-04    7.8204170E+05   -4.2781891E-04    2.7756763E+05
  -3.790   700.000   -4.044E-02    8.6284763E+05   -2.0228472E+02    2.6129433E-04    8.6261405E+05   -4.5259036E-04    3.0931770E+05
  -3.780   700.000   -4.475E-02    9.4974979E+05   -2.3162529E+02    2.7688051E-04    9.4948233E+05   -4.7958808E-04    3.4414700E+05
  -3.770   700.000   -4.943E-02    1.0431969E+06   -2.6413134E+02    2.9448108E-04    1.0428919E+06   -5.1007495E-04    3.8228113E+05
  -3.760   700.000   -5.449E-02    1.1434060E+06   -2.9985133E+02    3.1489030E-04    1.1430597E+06   -5.4542667E-04    4.2394830E+05
  -3.750   700.000   -5.996E-02    1.2505591E+06   -3.3875988E+02    3.3896488E-04    1.2501679E+06   -5.8712712E-04    4.6937466E+05
  -3.740   700.000   -6.584E-02    1.3647986E+06   -3.8074789E+02    3.6762722E-04    1.3643589E+06   -6.3677393E-04    5.1877851E+05
  -3.730   700.000   -7.218E-02    1.4862250E+06   -4.2561695E+02    4.0186655E-04    1.4857335E+06   -6.9608052E-04    5.7236362E+05
  -3.720   700.000   -7.897E-02    1.6148971E+06   -4.7307911E+02    4.4272727E-04    1.6143508E+06   -7.6685582E-04    6.3031202E+05
  -3.710   700.000   -8.625E-02    1.7508345E+06   -5.2276279E+02    4.9127372E-04    1.7502308E+06   -8.5094335E-04    6.9277689E+05
  -3.700   700.000   -9.401E-02    1.8940209E+06   -5.7422452E+02    5.4852480E-04    1.8933579E+06   -9.5010787E-04    7.5987589E+05
  -3.690   700.000   -1.023E-01    2.0444090E+06   -6.2696581E+02    6.1535819E-04    2.0436850E+06   -1.0658696E-03    8.3168603E+05
  -3.680   700.000   -1.111E-01    2.2019236E+06   -6.8045335E+02    6.9239172E-04    2.2011379E+06   -1.1992986E-03    9.0824039E+05
  -3.670   700.000   -1.204E-01    2.3664657E+06   -7.3414068E+02    7.7985601E-04    2.3656180E+06   -1.3507943E-03    9.8952752E+05
  -3.660   700.000   -1.303E-01    2.5379146E+06   -7.8748920E+02    8.7747637E-04    2.5370053E+06   -1.5198811E-03    1.0754938E+06
  -3.650   700.000   -1.407E-01    2.7161288E+06   -8.3998667E+02    9.8438206E-04    2.7151589E+06   -1.7050506E-03    1.1660492E+06
  -3.640   700.000   -1.517E-01    2.9009452E+06   -8.9116206E+02    1.0990581E-03    2.8999162E+06   -1.9036788E-03    1.2610754E+06
  -3.630   700.000   -1.633E-01    3.0921756E+06   -9.4059592E+02    1.2193488E-03    3.0910895E+06   -2.1120321E-03    1.3604372E+06
  -3.620   700.000   -1.754E-01    3.2895995E+06   -9.8792630E+02    1.3425166E-03    3.2884587E+06   -2.3253689E-03    1.4639954E+06
  -3.610   700.000   -1.882E-01    3.4929542E+06   -1.0328504E+03    1.4653521E-03    3.4917615E+06   -2.5381300E-03    1.5716195E+06
  -3.600   700.000   -2.015E-01    3.7019218E+06   -1.0751230E+03    1.5843272E-03    3.7006804E+06   -2.7442049E-03    1.6832017E+06
  -3.590   700.000   -2.155E-01    3.9161175E+06   -1.1145516E+03    1.6957821E-03    3.9148305E+06   -2.9372546E-03    1.7986673E+06
  -3.580   700.000   -2.300E-01    4.1350819E+06   -1.1509903E+03    1.7961339E-03    4.1337529E+06   -3.1110733E-03    1.9179843E+06
  -3.570   700.000   -2.452E-01    4.3582857E+06   -1.1843316E+03    1.8820976E-03    4.3569182E+06   -3.2599709E-03    2.0411685E+06
  -3.560   700.000   -2.611E-01    4.5851480E+06   -1.2144988E+03    1.9509091E-03    4.5837456E+06   -3.3791602E-03    2.1682852E+06
  -3.550   700.000   -2.776E-01    4.8150739E+06   -1.2414372E+03    2.0005403E-03    4.8136405E+06   -3.4651284E-03    2.2994470E+06
  -3.540   700.000   -2.948E-01    5.0475072E+06   -1.2651068E+03    2.0298907E-03    5.0460464E+06   -3.5159691E-03    2.4348084E+06
  -3.530   700.000   -3.127E-01    5.2819916E+06   -1.2854755E+03    2.0389394E-03    5.2805072E+06   -3.5316464E-03    2.5745562E+06
  -3.520   700.000   -3.313E-01    5.5182302E+06   -1.3025139E+03    2.0288409E-03    5.5167262E+06   -3.5141598E-03    2.7188986E+06
  -3.510   700.000   -3.506E-01    5.7561285E+06   -1.3161912E+03    2.0019474E-03    5.7546086E+06   -3.4675834E-03    2.8680518E+06
  -3.500   700.000   -3.706E-01    5.9958083E+06   -1.3264725E+03    1.9617490E-03    5.9942767E+06   -3.3979623E-03    3.0222262E+06
  -3.490   700.000   -3.914E-01    6.2375862E+06   -1.3333180E+03    1.9127257E-03    6.2360466E+06   -3.3130560E-03    3.1816135E+06
  -3.480   700.000   -4.130E-01    6.4819120E+06   -1.3366823E+03    1.8601124E-03    6.4803685E+06   -3.2219318E-03    3.3463736E+06
  -3.470   700.000   -4.353E-01    6.7292773E+06   -1.3365150E+03    1.8095808E-03    6.7277341E+06   -3.1344130E-03    3.5166244E+06
  -3.460   700.000   -4.584E-01    6.9801045E+06   -1.3327619E+03    1.7668473E-03    6.9785655E+06   -3.0604011E-03    3.6924343E+06
  -3.450   700.000   -4.822E-01    7.2346349E+06   -1.3253665E+03    1.7372270E-03    7.2331045E+06   -3.0091018E-03    3.8738166E+06
  -3.440   700.000   -5.069E-01    7.4928345E+06   -1.3142720E+03    1.7251623E-03    7.4913169E+06   -2.9882098E-03    4.0607284E+06
  -3.430   700.000   -5.323E-01    7.7543304E+06   -1.2994239E+03    1.7337762E-03    7.7528299E+06   -3.0031339E-03    4.2530718E+06
  -3.420   700.000   -5.585E-01    8.0183898E+06   -1.2807738E+03    1.7645062E-03    8.0169109E+06   -3.0563643E-03    4.4506982E+06
  -3.410   700.000   -5.855E-01    8.2839424E+06   -1.2582836E+03    1.8168809E-03    8.2824894E+06   -3.1470840E-03    4.6534149E+06
  -3.400   700.000   -6.133E-01    8.5496435E+06   -1.2319315E+03    1.8884843E-03    8.5482210E+06   -3.2711087E-03    4.8609927E+06
  -3.390   700.000   -6.419E-01    8.8139703E+06   -1.2017195E+03    1.9751290E-03    8.8125826E+06   -3.4211853E-03    5.0731750E+06
  -3.380   700.000   -6.712E-01    9.0753376E+06   -1.1676816E+03    2.0712208E-03    9.0739893E+06   -3.5876246E-03    5.2896856E+06
  -3.370   700.000   -7.013E-01    9.3322220E+06   -1.1298941E+03    2.1702678E-03    9.3309173E+06   -3.7591821E-03    5.5102373E+06
  -3.360   700.000   -7.321E-01    9.5832782E+06   -1.0884860E+03    2.2654608E-03    9.5820213E+06   -3.9240639E-03    5.7345383E+06
  -3.350   700.000   -7.636E-01    9.8274374E+06   -1.0436493E+03    2.3502499E-03    9.8262323E+06   -4.0709252E-03    5.9622978E+06
  -3.340   700.000   -7.958E-01    1.0063976E+07   -9.9564845E+02    2.4188493E-03    1.0062827E+07   -4.1897446E-03    6.1932316E+06
  -3.330   700.000   -8.286E-01    1.0292551E+07   -9.4482706E+02    2.4666267E-03    1.0291460E+07   -4.2724988E-03    6.4270663E+06
  -3.320   700.000   -8.621E-01    1.0513191E+07   -8.9161027E+02    2.4903578E-03    1.0512162E+07   -4.3136031E-03    6.6635452E+06
  -3.310   700.000   -8.962E-01    1.0726262E+07   -8.3650232E+02    2.4883508E-03    1.0725296E+07   -4.3101273E-03    6.9024349E+06
  -3.300   700.000   -9.308E-01    1.0932392E+07   -7.8007756E+02    2.4604593E-03    1.0931491E+07   -4.2618176E-03    7.1435338E+06
  -3.290   700.000   -9.660E-01    1.1132382E+07   -7.2296498E+02    2.4080079E-03    1.1131547E+07   -4.1709684E-03    7.3866835E+06
  -3.280   700.000   -1.002E+00    1.1327108E+07   -6.6582671E+02    2.3336550E-03    1.1326340E+07   -4.0421843E-03    7.6317810E+06
  -3.270   700.000   -1.038E+00    1.1517420E+07   -6.0933193E+02    2.2412062E-03    1.1516716E+07   -3.8820564E-03    7.8787927E+06
  -3.260   700.000   -1.075E+00    1.1704049E+07   -5.5412848E+02    2.1353888E-03    1.1703409E+07   -3.6987731E-03    8.1277678E+06
  -3.250   700.000   -1.112E+00    1.1887541E+07   -5.0081483E+02    2.0215918E-03    1.1886962E+07   -3.5016683E-03    8.3788497E+06
  -3.240   700.000   -1.150E+00    1.2068201E+07   -4.4991537E+02    1.9055737E-03    1.2067681E+07   -3.3007158E-03    8.6322828E+06
  -3.230   700.000   -1.188E+00    1.2246072E+07   -4.0186129E+02    1.7931409E-03    1.2245608E+07   -3.1059730E-03    8.8884136E+06
  -3.220   700.000   -1.227E+00    1.2420940E+07   -3.5697876E+02    1.6898054E-03    1.2420528E+07   -2.9269868E-03    9.1476849E+06
  -3.210   700.000   -1.266E+00    1.2592360E+07   -3.1548493E+02    1.6004289E-03    1.2591995E+07   -2.7721777E-03    9.4106215E+06
  -3.200   700.000   -1.305E+00    1.2759712E+07   -2.7749124E+02    1.5288711E-03    1.2759392E+07   -2.6482313E-03    9.6778098E+06
  -3.190   700.000   -1.345E+00    1.2922283E+07   -2.4301287E+02    1.4776656E-03    1.2922002E+07   -2.5595359E-03    9.9498709E+06
  -3.180   700.000   -1.386E+00    1.3079347E+07   -2.1198246E+02    1.4477533E-03    1.3079102E+07   -2.5077210E-03    1.0227430E+07
  -3.170   700.000   -1.427E+00    1.3230271E+07   -1.8426623E+02    1.4383080E-03    1.3230058E+07   -2.4913558E-03    1.0511086E+07
  -3.160   700.000   -1.468E+00    1.3374597E+07   -1.5968070E+02    1.4466882E-03    1.3374412E+07   -2.5058649E-03    1.0801374E+07
  -3.150   700.000   -1.510E+00    1.3512120E+07   -1.3800867E+02    1.4685338E-03    1.3511960E+07   -2.5436965E-03    1.1098744E+07
  -3.140   700.000   -1.552E+00    1.3642937E+07   -1.1901337E+02    1.4980116E-03    1.3642800E+07   -2.5947473E-03    1.1403529E+07
  -3.130   700.000   -1.595E+00    1.3767461E+07   -1.0245045E+02    1.5281911E-03    1.3767342E+07   -2.6470132E-03    1.1715925E+07
  -3.120   700.000   -1.638E+00    1.3886393E+07   -8.8077386E+01    1.5515160E-03    1.3886291E+07   -2.6874065E-03    1.2035982E+07
  -3.110   700.000   -1.682E+00    1.4000666E+07   -7.5660602E+01    1.5603299E-03    1.4000579E+07   -2.7026658E-03    1.2363591E+07
  -3.100   700.000   -1.725E+00    1.4111351E+07   -6.4980389E+01    1.5474151E-03    1.4111275E+07   -2.6802899E-03    1.2698487E+07
  -3.090   700.000   -1.770E+00    1.4219544E+07   -5.5834099E+01    1.5065127E-03    1.4219479E+07   -2.6094380E-03    1.3040258E+07
  -3.080   700.000   -1.814E+00    1.4326260E+07   -4.8037884E+01    1.4327965E-03    1.4326205E+07   -2.4817510E-03    1.3388359E+07
  -3.070   700.000   -1.859E+00    1.4432332E+07   -4.1427370E+01    1.3232775E-03    1.4432284E+07   -2.2920519E-03    1.3742133E+07
  -3.060   700.000   -1.904E+00    1.4538340E+07   -3.5857555E+01    1.1771102E-03    1.4538299E+07   -2.0388761E-03    1.4100839E+07
  -3.050   700.000   -1.949E+00    1.4644583E+07   -3.1202194E+01    9.9576390E-04    1.4644547E+07   -1.7247688E-03    1.4463681E+07
  -3.040   700.000   -1.994E+00    1.4751081E+07   -2.7352870E+01    7.8302170E-04    1.4751049E+07   -1.3562824E-03    1.4829837E+07
  -3.030   700.000   -2.040E+00    1.4857619E+07   -2.4217917E+01    5.4477204E-04    1.4857591E+07   -9.4361601E-04    1.5198488E+07
  -3.020   700.000   -2.085E+00    1.4963808E+07   -2.1721308E+01    2.8857933E-04    1.4963783E+07   -4.9987167E-04    1.5568837E+07
  -3.010   700.000   -2.131E+00    1.5069152E+07   -1.9801592E+01    2.3049147E-05    1.5069129E+07   -3.9954670E-05    1.5940136E+07
  -3.000   700.000   -2.177E+00    1.5173110E+07   -1.8410948E+01   -2.4295893E-04    1.5173089E+07    4.2078974E-04    1.6311687E+07
