# 0 [Electrical conductivity in SI units, i.e. in 1/Ohm/m]
# Mu(eV) T(K) N(#carriers) sigma_xx sigma_xy sigma_yy
# T(K) =   300.00   Npoints =      31   V(cm^3) =  4.649E-22
      -4.84          300.000    5.870E+00    2.8389586E+08    7.4129489E-08    1.7501534E+08
      -4.74          300.000    5.513E+00    3.1609093E+08   -2.3704243E-07    1.4231500E+08
      -4.64          300.000    5.186E+00    3.8710549E+08   -1.8015104E-07    9.3989899E+07
      -4.54          300.000    4.826E+00    4.8960527E+08   -1.0225684E-08    7.6127580E+07
      -4.44          300.000    4.447E+00    3.9672080E+08   -8.3517649E-07    7.4405431E+07
      -4.34          300.000    4.134E+00    2.0067057E+08   -1.2907619E-07    6.0141836E+07
      -4.24          300.000    3.886E+00    6.3310246E+07   -1.1716654E-07    7.5394479E+07
      -4.14          300.000    3.680E+00    5.5597702E+07   -3.5612005E-08    1.3049465E+08
      -4.04          300.000    3.436E+00    7.4956091E+07    1.7690557E-08    1.9512238E+08
      -3.94          300.000    3.155E+00    1.1968784E+08   -1.7568126E-08    2.2652819E+08
      -3.84          300.000    2.820E+00    1.8302527E+08   -1.6676868E-07    1.9815643E+08
      -3.74          300.000    2.270E+00    9.0667856E+07   -7.4382478E-08    1.1276093E+08
      -3.64          300.000    9.206E-01    5.0947925E+07   -1.0368817E-08    1.2807720E+08
      -3.54          300.000    4.061E-01    1.3536756E+08    1.2604839E-07    1.5447491E+08
      -3.44          300.000    2.326E-01    1.4244910E+08    3.1845193E-07    1.3408534E+08
      -3.34          300.000    1.251E-01    1.1438644E+08    2.2205717E-07    1.0191061E+08
      -3.24          300.000    5.367E-02    7.5287014E+07   -8.9024763E-08    6.6119914E+07
      -3.14          300.000    1.339E-02    3.4334316E+07   -2.9005023E-08    3.1492029E+07
      -3.04          300.000   -2.127E-03    1.1716809E+07   -2.0046195E-08    1.7911854E+07
      -2.94          300.000   -2.565E-02    4.7779273E+07    4.1524639E-08    4.3963630E+07
      -2.84          300.000   -8.141E-02    8.4340088E+07   -4.7380570E-08    7.9922938E+07
      -2.74          300.000   -1.762E-01    1.1506087E+08   -1.0171931E-08    1.1812990E+08
      -2.64          300.000   -3.215E-01    1.3165484E+08    7.9233850E-08    1.5667175E+08
      -2.54          300.000   -5.507E-01    1.0922208E+08    4.8973353E-09    2.0291232E+08
      -2.44          300.000   -8.473E-01    5.1888914E+07    1.1468857E-07    2.4827126E+08
      -2.34          300.000   -1.104E+00    3.2965046E+07   -4.8380942E-08    2.6268237E+08
      -2.24          300.000   -1.367E+00    4.0899094E+07   -9.2570436E-09    2.5296856E+08
      -2.14          300.000   -1.582E+00    4.4671267E+07   -1.7193659E-07    2.2859673E+08
      -2.04          300.000   -1.732E+00    3.7469800E+07    1.2198798E-08    2.0236243E+08
      -1.94          300.000   -1.843E+00    2.6805605E+07   -4.2249789E-08    1.7144739E+08
      -1.84          300.000   -1.928E+00    1.5216703E+07   -5.4268742E-08    1.1965182E+08
# T(K) =   310.00   Npoints =      31   V(cm^3) =  4.649E-22
      -4.84          310.000    5.871E+00    2.8409366E+08    6.6444602E-08    1.7543955E+08
      -4.74          310.000    5.513E+00    3.1635717E+08   -2.3566396E-07    1.4207188E+08
      -4.64          310.000    5.185E+00    3.8762891E+08   -1.8183467E-07    9.4297971E+07
      -4.54          310.000    4.826E+00    4.8792116E+08   -2.1785015E-08    7.6216872E+07
      -4.44          310.000    4.448E+00    3.9603809E+08   -8.1072641E-07    7.4262617E+07
      -4.34          310.000    4.134E+00    2.0095896E+08   -1.3435369E-07    6.0354489E+07
      -4.24          310.000    3.887E+00    6.4451544E+07   -1.1776908E-07    7.5742195E+07
      -4.14          310.000    3.680E+00    5.5757892E+07   -3.6121272E-08    1.3056965E+08
      -4.04          310.000    3.436E+00    7.5136709E+07    1.8441736E-08    1.9484155E+08
      -3.94          310.000    3.155E+00    1.1999984E+08   -1.7327228E-08    2.2610986E+08
      -3.84          310.000    2.819E+00    1.8163949E+08   -1.6206712E-07    1.9769817E+08
      -3.74          310.000    2.260E+00    9.1049381E+07   -7.1793967E-08    1.1354924E+08
      -3.64          310.000    9.289E-01    5.1992363E+07   -9.8675244E-09    1.2785175E+08
      -3.54          310.000    4.083E-01    1.3471974E+08    1.2587459E-07    1.5417848E+08
      -3.44          310.000    2.331E-01    1.4225802E+08    3.1694852E-07    1.3398854E+08
      -3.34          310.000    1.254E-01    1.1423008E+08    2.1926350E-07    1.0183847E+08
      -3.24          310.000    5.390E-02    7.5310669E+07   -8.5162951E-08    6.6162625E+07
      -3.14          310.000    1.359E-02    3.4393026E+07   -2.8657006E-08    3.1619656E+07
      -3.04          310.000   -2.196E-03    1.2281464E+07   -2.0409754E-08    1.8243985E+07
      -2.94          310.000   -2.589E-02    4.7742043E+07    4.1277075E-08    4.3976428E+07
      -2.84          310.000   -8.170E-02    8.4339293E+07   -4.5004736E-08    8.0000000E+07
      -2.74          310.000   -1.766E-01    1.1497259E+08   -1.1310570E-08    1.1807904E+08
      -2.64          310.000   -3.221E-01    1.3137434E+08    7.8671826E-08    1.5675461E+08
      -2.54          310.000   -5.514E-01    1.0885619E+08    1.0702191E-08    2.0296059E+08
      -2.44          310.000   -8.470E-01    5.2211461E+07    1.1201451E-07    2.4790495E+08
      -2.34          310.000   -1.104E+00    3.3164372E+07   -4.6412043E-08    2.6267677E+08
      -2.24          310.000   -1.366E+00    4.0840334E+07   -1.1684783E-08    2.5273392E+08
      -2.14          310.000   -1.582E+00    4.4594754E+07   -1.6747176E-07    2.2850823E+08
      -2.04          310.000   -1.731E+00    3.7443556E+07    1.0190550E-08    2.0251953E+08
      -1.94          310.000   -1.842E+00    2.6801904E+07   -4.1648196E-08    1.7114916E+08
      -1.84          310.000   -1.928E+00    1.5240807E+07   -5.3868294E-08    1.1932350E+08
# T(K) =   320.00   Npoints =      31   V(cm^3) =  4.649E-22
      -4.84          320.000    5.872E+00    2.8429537E+08    5.9005427E-08    1.7584852E+08
      -4.74          320.000    5.513E+00    3.1662774E+08   -2.3410386E-07    1.4183954E+08
      -4.64          320.000    5.185E+00    3.8811395E+08   -1.8324550E-07    9.4600752E+07
      -4.54          320.000    4.826E+00    4.8624056E+08   -3.3130608E-08    7.6317457E+07
      -4.44          320.000    4.448E+00    3.9530699E+08   -7.8736470E-07    7.4119023E+07
      -4.34          320.000    4.135E+00    2.0127364E+08   -1.3964693E-07    6.0574908E+07
      -4.24          320.000    3.887E+00    6.5599654E+07   -1.1828863E-07    7.6092609E+07
      -4.14          320.000    3.679E+00    5.5933230E+07   -3.6613478E-08    1.3064592E+08
      -4.04          320.000    3.436E+00    7.5323978E+07    1.8972700E-08    1.9455696E+08
      -3.94          320.000    3.154E+00    1.2029158E+08   -1.7228637E-08    2.2567513E+08
      -3.84          320.000    2.818E+00    1.8025501E+08   -1.5768841E-07    1.9723715E+08
      -3.74          320.000    2.251E+00    9.1439772E+07   -6.9535836E-08    1.1435512E+08
      -3.64          320.000    9.371E-01    5.3042729E+07   -9.3530776E-09    1.2766002E+08
      -3.54          320.000    4.107E-01    1.3406823E+08    1.2582141E-07    1.5386615E+08
      -3.44          320.000    2.336E-01    1.4204460E+08    3.1525431E-07    1.3389132E+08
      -3.34          320.000    1.257E-01    1.1408769E+08    2.1654921E-07    1.0177531E+08
      -3.24          320.000    5.414E-02    7.5325649E+07   -8.1340429E-08    6.6196795E+07
      -3.14          320.000    1.379E-02    3.4465874E+07   -2.8382062E-08    3.1758497E+07
      -3.04          320.000   -2.266E-03    1.2842094E+07   -2.0702178E-08    1.8577910E+07
      -2.94          320.000   -2.614E-02    4.7715531E+07    4.0933073E-08    4.4003798E+07
      -2.84          320.000   -8.200E-02    8.4326906E+07   -4.2771410E-08    8.0064845E+07
      -2.74          320.000   -1.770E-01    1.1487687E+08   -1.2280749E-08    1.1803980E+08
      -2.64          320.000   -3.227E-01    1.3108542E+08    7.7988496E-08    1.5683320E+08
      -2.54          320.000   -5.520E-01    1.0849579E+08    1.6034641E-08    2.0299773E+08
      -2.44          320.000   -8.466E-01    5.2536504E+07    1.0937907E-07    2.4756004E+08
      -2.34          320.000   -1.104E+00    3.3369520E+07   -4.4488062E-08    2.6262931E+08
      -2.24          320.000   -1.366E+00    4.0784528E+07   -1.4066772E-08    2.5252135E+08
      -2.14          320.000   -1.581E+00    4.4515857E+07   -1.6318794E-07    2.2843689E+08
      -2.04          320.000   -1.731E+00    3.7416285E+07    8.1942991E-09    2.0263292E+08
      -1.94          320.000   -1.842E+00    2.6797798E+07   -4.1054596E-08    1.7087730E+08
      -1.84          320.000   -1.928E+00    1.5266232E+07   -5.3430792E-08    1.1899667E+08
# T(K) =   330.00   Npoints =      31   V(cm^3) =  4.649E-22
      -4.84          330.000    5.873E+00    2.8449925E+08    5.1804829E-08    1.7624096E+08
      -4.74          330.000    5.513E+00    3.1690447E+08   -2.3238785E-07    1.4161877E+08
      -4.64          330.000    5.185E+00    3.8856280E+08   -1.8441755E-07    9.4898759E+07
      -4.54          330.000    4.826E+00    4.8456078E+08   -4.4218658E-08    7.6427612E+07
      -4.44          330.000    4.449E+00    3.9453422E+08   -7.6506344E-07    7.3976744E+07
      -4.34          330.000    4.135E+00    2.0161283E+08   -1.4492706E-07    6.0802504E+07
      -4.24          330.000    3.887E+00    6.6753881E+07   -1.1873506E-07    7.6445681E+07
      -4.14          330.000    3.679E+00    5.6124331E+07   -3.7089095E-08    1.3072342E+08
      -4.04          330.000    3.435E+00    7.5517911E+07    1.9310920E-08    1.9426849E+08
      -3.94          330.000    3.154E+00    1.2056296E+08   -1.7253773E-08    2.2522466E+08
      -3.84          330.000    2.817E+00    1.7887364E+08   -1.5359960E-07    1.9677405E+08
      -3.74          330.000    2.243E+00    9.1837482E+07   -6.7569505E-08    1.1517421E+08
      -3.64          330.000    9.453E-01    5.4097534E+07   -8.8234427E-09    1.2750080E+08
      -3.54          330.000    4.132E-01    1.3341556E+08    1.2586438E-07    1.5353993E+08
      -3.44          330.000    2.341E-01    1.4181107E+08    3.1339806E-07    1.3379252E+08
      -3.34          330.000    1.259E-01    1.1395564E+08    2.1391498E-07    1.0171905E+08
      -3.24          330.000    5.439E-02    7.5333600E+07   -7.7565635E-08    6.6224645E+07
      -3.14          330.000    1.399E-02    3.4552303E+07   -2.8168307E-08    3.1907452E+07
      -3.04          330.000   -2.336E-03    1.3398922E+07   -2.0927447E-08    1.8913940E+07
      -2.94          330.000   -2.640E-02    4.7698671E+07    4.0501084E-08    4.4044027E+07
      -2.84          330.000   -8.231E-02    8.4305132E+07   -4.0669785E-08    8.0119911E+07
      -2.74          330.000   -1.774E-01    1.1477434E+08   -1.3095449E-08    1.1801031E+08
      -2.64          330.000   -3.233E-01    1.3078814E+08    7.7204572E-08    1.5690835E+08
      -2.54          330.000   -5.527E-01    1.0814072E+08    2.0928042E-08    2.0302519E+08
      -2.44          330.000   -8.463E-01    5.2863353E+07    1.0678911E-07    2.4723217E+08
      -2.34          330.000   -1.104E+00    3.3580255E+07   -4.2610445E-08    2.6254626E+08
      -2.24          330.000   -1.366E+00    4.0731677E+07   -1.6390015E-08    2.5232646E+08
      -2.14          330.000   -1.581E+00    4.4434681E+07   -1.5907594E-07    2.2837855E+08
      -2.04          330.000   -1.731E+00    3.7387975E+07    6.2139750E-09    2.0271037E+08
      -1.94          330.000   -1.842E+00    2.6793291E+07   -4.0474257E-08    1.7062620E+08
      -1.84          330.000   -1.928E+00    1.5292995E+07   -5.2961601E-08    1.1867201E+08
# T(K) =   340.00   Npoints =      31   V(cm^3) =  4.649E-22
      -4.84          340.000    5.875E+00    2.8470379E+08    4.4836725E-08    1.7661576E+08
      -4.74          340.000    5.513E+00    3.1718860E+08   -2.3054010E-07    1.4141008E+08
      -4.64          340.000    5.184E+00    3.8897727E+08   -1.8538225E-07    9.5192414E+07
      -4.54          340.000    4.826E+00    4.8287985E+08   -5.5014793E-08    7.6545904E+07
      -4.44          340.000    4.449E+00    3.9372523E+08   -7.4379003E-07    7.3837436E+07
      -4.34          340.000    4.136E+00    2.0197468E+08   -1.5016797E-07    6.1036724E+07
      -4.24          340.000    3.888E+00    6.7913620E+07   -1.1911802E-07    7.6801370E+07
      -4.14          340.000    3.679E+00    5.6331748E+07   -3.7548866E-08    1.3080207E+08
      -4.04          340.000    3.435E+00    7.5718486E+07    1.9480115E-08    1.9397605E+08
      -3.94          340.000    3.153E+00    1.2081392E+08   -1.7385657E-08    2.2475911E+08
      -3.84          340.000    2.815E+00    1.7749709E+08   -1.4977090E-07    1.9630959E+08
      -3.74          340.000    2.234E+00    9.2241080E+07   -6.5859971E-08    1.1600275E+08
      -3.64          340.000    9.533E-01    5.5155329E+07   -8.2772430E-09    1.2737265E+08
      -3.54          340.000    4.157E-01    1.3276391E+08    1.2598305E-07    1.5320157E+08
      -3.44          340.000    2.347E-01    1.4155931E+08    3.1140387E-07    1.3369128E+08
      -3.34          340.000    1.262E-01    1.1383098E+08    2.1136056E-07    1.0166804E+08
      -3.24          340.000    5.464E-02    7.5335906E+07   -7.3845266E-08    6.6247958E+07
      -3.14          340.000    1.420E-02    3.4651781E+07   -2.8004957E-08    3.2065592E+07
      -3.04          340.000   -2.408E-03    1.3952167E+07   -2.1089855E-08    1.9252320E+07
      -2.94          340.000   -2.666E-02    4.7690643E+07    3.9989313E-08    4.4095718E+07
      -2.84          340.000   -8.263E-02    8.4275708E+07   -3.8690178E-08    8.0167227E+07
      -2.74          340.000   -1.778E-01    1.1466545E+08   -1.3766564E-08    1.1798905E+08
      -2.64          340.000   -3.240E-01    1.3048261E+08    7.6338563E-08    1.5698072E+08
      -2.54          340.000   -5.533E-01    1.0779081E+08    2.5413541E-08    2.0304415E+08
      -2.44          340.000   -8.459E-01    5.3191374E+07    1.0425038E-07    2.4691774E+08
      -2.34          340.000   -1.105E+00    3.3796339E+07   -4.0780800E-08    2.6243288E+08
      -2.24          340.000   -1.365E+00    4.0681785E+07   -1.8644016E-08    2.5214557E+08
      -2.14          340.000   -1.580E+00    4.4351343E+07   -1.5512713E-07    2.2832990E+08
      -2.04          340.000   -1.730E+00    3.7358607E+07    4.2535745E-09    2.0275823E+08
      -1.94          340.000   -1.842E+00    2.6788398E+07   -3.9911464E-08    1.7039119E+08
      -1.84          340.000   -1.927E+00    1.5321092E+07   -5.2465511E-08    1.1835029E+08
# T(K) =   350.00   Npoints =      31   V(cm^3) =  4.649E-22
      -4.84          350.000    5.876E+00    2.8490759E+08    3.8095824E-08    1.7697194E+08
      -4.74          350.000    5.514E+00    3.1748083E+08   -2.2858313E-07    1.4121379E+08
      -4.64          350.000    5.184E+00    3.8935886E+08   -1.8616838E-07    9.5482069E+07
      -4.54          350.000    4.826E+00    4.8119645E+08   -6.5492661E-08    7.6671145E+07
      -4.44          350.000    4.450E+00    3.9288446E+08   -7.2350855E-07    7.3702396E+07
      -4.34          350.000    4.136E+00    2.0235731E+08   -1.5534621E-07    6.1277060E+07
      -4.24          350.000    3.888E+00    6.9078332E+07   -1.1944680E-07    7.7159625E+07
      -4.14          350.000    3.678E+00    5.6555965E+07   -3.7993755E-08    1.3088180E+08
      -4.04          350.000    3.435E+00    7.5925654E+07    1.9500814E-08    1.9367958E+08
      -3.94          350.000    3.152E+00    1.2104443E+08   -1.7608883E-08    2.2427909E+08
      -3.84          350.000    2.814E+00    1.7612696E+08   -1.4617550E-07    1.9584447E+08
      -3.74          350.000    2.226E+00    9.2649239E+07   -6.4375559E-08    1.1683753E+08
      -3.64          350.000    9.613E-01    5.6214710E+07   -7.7136461E-09    1.2727409E+08
      -3.54          350.000    4.185E-01    1.3211517E+08    1.2616028E-07    1.5285262E+08
      -3.44          350.000    2.353E-01    1.4129086E+08    3.0929200E-07    1.3358689E+08
      -3.34          350.000    1.265E-01    1.1371133E+08    2.0888493E-07    1.0162095E+08
      -3.24          350.000    5.491E-02    7.5333731E+07   -7.0184566E-08    6.6268167E+07
      -3.14          350.000    1.441E-02    3.4763799E+07   -2.7882237E-08    3.2232129E+07
      -3.04          350.000   -2.479E-03    1.4502034E+07   -2.1193883E-08    1.9593234E+07
      -2.94          350.000   -2.693E-02    4.7690822E+07    3.9405710E-08    4.4157735E+07
      -2.84          350.000   -8.296E-02    8.4240004E+07   -3.6823856E-08    8.0208480E+07
      -2.74          350.000   -1.782E-01    1.1455052E+08   -1.4305108E-08    1.1797473E+08
      -2.64          350.000   -3.247E-01    1.3016899E+08    7.5406894E-08    1.5705084E+08
      -2.54          350.000   -5.540E-01    1.0744587E+08    2.9520214E-08    2.0305557E+08
      -2.44          350.000   -8.456E-01    5.3519988E+07    1.0176769E-07    2.4661380E+08
      -2.34          350.000   -1.105E+00    3.4017534E+07   -3.9000749E-08    2.6229358E+08
      -2.24          350.000   -1.365E+00    4.0634855E+07   -2.0820463E-08    2.5197563E+08
      -2.14          350.000   -1.580E+00    4.4265968E+07   -1.5133339E-07    2.2828833E+08
      -2.04          350.000   -1.730E+00    3.7328163E+07    2.3170181E-09    2.0278165E+08
      -1.94          350.000   -1.842E+00    2.6783141E+07   -3.9369623E-08    1.7016845E+08
      -1.84          350.000   -1.927E+00    1.5350504E+07   -5.1946813E-08    1.1803230E+08
# T(K) =   360.00   Npoints =      31   V(cm^3) =  4.649E-22
      -4.84          360.000    5.877E+00    2.8510941E+08    3.1577412E-08    1.7730861E+08
      -4.74          360.000    5.514E+00    3.1778149E+08   -2.2653780E-07    1.4103000E+08
      -4.64          360.000    5.184E+00    3.8970885E+08   -1.8680208E-07    9.5768018E+07
      -4.54          360.000    4.826E+00    4.7950970E+08   -7.5632705E-08    7.6802353E+07
      -4.44          360.000    4.451E+00    3.9201558E+08   -7.0418087E-07    7.3572644E+07
      -4.34          360.000    4.137E+00    2.0275889E+08   -1.6044094E-07    6.1523048E+07
      -4.24          360.000    3.888E+00    7.0247535E+07   -1.1973023E-07    7.7520391E+07
      -4.14          360.000    3.678E+00    5.6797406E+07   -3.8424906E-08    1.3096252E+08
      -4.04          360.000    3.434E+00    7.6139337E+07    1.9390830E-08    1.9337899E+08
      -3.94          360.000    3.152E+00    1.2125453E+08   -1.7909551E-08    2.2378526E+08
      -3.84          360.000    2.812E+00    1.7476473E+08   -1.4278940E-07    1.9537940E+08
      -3.74          360.000    2.218E+00    9.3060732E+07   -6.3087681E-08    1.1767574E+08
      -3.64          360.000    9.691E-01    5.7274325E+07   -7.1322696E-09    1.2720355E+08
      -3.54          360.000    4.213E-01    1.3147095E+08    1.2638171E-07    1.5249446E+08
      -3.44          360.000    2.359E-01    1.4100703E+08    3.0707963E-07    1.3347882E+08
      -3.34          360.000    1.269E-01    1.1359478E+08    2.0648647E-07    1.0157674E+08
      -3.24          360.000    5.518E-02    7.5328052E+07   -6.6587580E-08    6.6286420E+07
      -3.14          360.000    1.462E-02    3.4887866E+07   -2.7791299E-08    3.2406393E+07
      -3.04          360.000   -2.552E-03    1.5048714E+07   -2.1244097E-08    1.9936810E+07
      -2.94          360.000   -2.721E-02    4.7698733E+07    3.8757945E-08    4.4229151E+07
      -2.84          360.000   -8.329E-02    8.4199099E+07   -3.5062899E-08    8.0245073E+07
      -2.74          360.000   -1.786E-01    1.1442979E+08   -1.4721366E-08    1.1796629E+08
      -2.64          360.000   -3.254E-01    1.2984747E+08    7.4424046E-08    1.5711914E+08
      -2.54          360.000   -5.546E-01    1.0710573E+08    3.3275192E-08    2.0306025E+08
      -2.44          360.000   -8.452E-01    5.3848665E+07    9.9344911E-08    2.4631792E+08
      -2.34          360.000   -1.105E+00    3.4243602E+07   -3.7271818E-08    2.6213205E+08
      -2.24          360.000   -1.364E+00    4.0590892E+07   -2.2912947E-08    2.5181412E+08
      -2.14          360.000   -1.579E+00    4.4178688E+07   -1.4768714E-07    2.2825176E+08
      -2.04          360.000   -1.730E+00    3.7296624E+07    4.0804735E-10    2.0278482E+08
      -1.94          360.000   -1.841E+00    2.6777547E+07   -3.8851359E-08    1.6995484E+08
      -1.84          360.000   -1.927E+00    1.5381199E+07   -5.1409369E-08    1.1771884E+08
# T(K) =   370.00   Npoints =      31   V(cm^3) =  4.649E-22
      -4.84          370.000    5.878E+00    2.8530816E+08    2.5277176E-08    1.7762505E+08
      -4.74          370.000    5.514E+00    3.1809060E+08   -2.2442318E-07    1.4085871E+08
      -4.64          370.000    5.183E+00    3.9002830E+08   -1.8730691E-07    9.6050511E+07
      -4.54          370.000    4.826E+00    4.7781915E+08   -8.5421099E-08    7.6938718E+07
      -4.44          370.000    4.451E+00    3.9112165E+08   -6.8576752E-07    7.3448976E+07
      -4.34          370.000    4.137E+00    2.0317763E+08   -1.6543383E-07    6.1774272E+07
      -4.24          370.000    3.889E+00    7.1420793E+07   -1.1997662E-07    7.7883601E+07
      -4.14          370.000    3.678E+00    5.7056427E+07   -3.8843608E-08    1.3104414E+08
      -4.04          370.000    3.434E+00    7.6359434E+07    1.9165663E-08    1.9307424E+08
      -3.94          370.000    3.151E+00    1.2144429E+08   -1.8275202E-08    2.2327821E+08
      -3.84          370.000    2.810E+00    1.7341178E+08   -1.3959120E-07    1.9491505E+08
      -3.74          370.000    2.210E+00    9.3474427E+07   -6.1970599E-08    1.1851499E+08
      -3.64          370.000    9.768E-01    5.8332879E+07   -6.5331020E-09    1.2715941E+08
      -3.54          370.000    4.243E-01    1.3083267E+08    1.2663528E-07    1.5212835E+08
      -3.44          370.000    2.366E-01    1.4070897E+08    3.0478134E-07    1.3336666E+08
      -3.34          370.000    1.272E-01    1.1347978E+08    2.0416316E-07    1.0153453E+08
      -3.24          370.000    5.545E-02    7.5319686E+07   -6.3057359E-08    6.6303641E+07
      -3.14          370.000    1.483E-02    3.5023509E+07   -2.7724155E-08    3.2587817E+07
      -3.04          370.000   -2.625E-03    1.5592380E+07   -2.1245062E-08    2.0283130E+07
      -2.94          370.000   -2.749E-02    4.7714018E+07    3.8053384E-08    4.4309209E+07
      -2.84          370.000   -8.364E-02    8.4153847E+07   -3.3400076E-08    8.0278174E+07
      -2.74          370.000   -1.791E-01    1.1430340E+08   -1.5024996E-08    1.1796287E+08
      -2.64          370.000   -3.261E-01    1.2951828E+08    7.3402699E-08    1.5718593E+08
      -2.54          370.000   -5.552E-01    1.0677023E+08    3.6703778E-08    2.0305882E+08
      -2.44          370.000   -8.449E-01    5.4176920E+07    9.6985072E-08    2.4602812E+08
      -2.34          370.000   -1.105E+00    3.4474305E+07   -3.5595369E-08    2.6195139E+08
      -2.24          370.000   -1.364E+00    4.0549900E+07   -2.4916701E-08    2.5165891E+08
      -2.14          370.000   -1.579E+00    4.4089640E+07   -1.4418132E-07    2.2821854E+08
      -2.04          370.000   -1.729E+00    3.7263974E+07   -1.4698458E-09    2.0277112E+08
      -1.94          370.000   -1.841E+00    2.6771644E+07   -3.8358620E-08    1.6974783E+08
      -1.84          370.000   -1.927E+00    1.5413135E+07   -5.0856663E-08    1.1741062E+08
# T(K) =   380.00   Npoints =      31   V(cm^3) =  4.649E-22
      -4.84          380.000    5.880E+00    2.8550286E+08    1.9191070E-08    1.7792061E+08
      -4.74          380.000    5.514E+00    3.1840794E+08   -2.2225670E-07    1.4069976E+08
      -4.64          380.000    5.183E+00    3.9031811E+08   -1.8770400E-07    9.6329762E+07
      -4.54          380.000    4.826E+00    4.7612463E+08   -9.4848831E-08    7.7079573E+07
      -4.44          380.000    4.452E+00    3.9020523E+08   -6.6822843E-07    7.3332011E+07
      -4.34          380.000    4.138E+00    2.0361178E+08   -1.7030896E-07    6.2030359E+07
      -4.24          380.000    3.889E+00    7.2597703E+07   -1.2019367E-07    7.8249184E+07
      -4.14          380.000    3.677E+00    5.7333323E+07   -3.9251254E-08    1.3112656E+08
      -4.04          380.000    3.434E+00    7.6585826E+07    1.8838839E-08    1.9276529E+08
      -3.94          380.000    3.151E+00    1.2161387E+08   -1.8694725E-08    2.2275858E+08
      -3.84          380.000    2.808E+00    1.7206937E+08   -1.3656187E-07    1.9445205E+08
      -3.74          380.000    2.202E+00    9.3889282E+07   -6.1001196E-08    1.1935319E+08
      -3.64          380.000    9.844E-01    5.9389138E+07   -5.9164360E-09    1.2714010E+08
      -3.54          380.000    4.273E-01    1.3020158E+08    1.2691087E-07    1.5175542E+08
      -3.44          380.000    2.373E-01    1.4039763E+08    3.0240963E-07    1.3325009E+08
      -3.34          380.000    1.276E-01    1.1336509E+08    2.0191260E-07    1.0149366E+08
      -3.24          380.000    5.574E-02    7.5309321E+07   -5.9596141E-08    6.6320569E+07
      -3.14          380.000    1.505E-02    3.5170268E+07   -2.7673616E-08    3.2775916E+07
      -3.04          380.000   -2.699E-03    1.6133188E+07   -2.1201271E-08    2.0632238E+07
      -2.94          380.000   -2.778E-02    4.7736403E+07    3.7299063E-08    4.4397288E+07
      -2.84          380.000   -8.400E-02    8.4104927E+07   -3.1828756E-08    8.0308757E+07
      -2.74          380.000   -1.796E-01    1.1417145E+08   -1.5225103E-08    1.1796375E+08
      -2.64          380.000   -3.268E-01    1.2918167E+08    7.2353891E-08    1.5725146E+08
      -2.54          380.000   -5.559E-01    1.0643921E+08    3.9829555E-08    2.0305181E+08
      -2.44          380.000   -8.446E-01    5.4504314E+07    9.4690461E-08    2.4574277E+08
      -2.34          380.000   -1.105E+00    3.4709402E+07   -3.3972544E-08    2.6175418E+08
      -2.24          380.000   -1.363E+00    4.0511885E+07   -2.6828375E-08    2.5150826E+08
      -2.14          380.000   -1.578E+00    4.3998967E+07   -1.4080935E-07    2.2818737E+08
      -2.04          380.000   -1.729E+00    3.7230200E+07   -3.3134665E-09    2.0274329E+08
      -1.94          380.000   -1.841E+00    2.6765459E+07   -3.7892764E-08    1.6954536E+08
      -1.84          380.000   -1.927E+00    1.5446264E+07   -5.0291844E-08    1.1710830E+08
# T(K) =   390.00   Npoints =      31   V(cm^3) =  4.649E-22
      -4.84          390.000    5.881E+00    2.8569264E+08    1.3315200E-08    1.7819477E+08
      -4.74          390.000    5.515E+00    3.1873310E+08   -2.2005410E-07    1.4055293E+08
      -4.64          390.000    5.183E+00    3.9057907E+08   -1.8801215E-07    9.6605960E+07
      -4.54          390.000    4.826E+00    4.7442622E+08   -1.0391092E-07    7.7224370E+07
      -4.44          390.000    4.452E+00    3.8926851E+08   -6.5152346E-07    7.3222229E+07
      -4.34          390.000    4.138E+00    2.0405968E+08   -1.7505271E-07    6.2290975E+07
      -4.24          390.000    3.890E+00    7.3777891E+07   -1.2038848E-07    7.8617055E+07
      -4.14          390.000    3.677E+00    5.7628327E+07   -3.9649313E-08    1.3120968E+08
      -4.04          390.000    3.433E+00    7.6818378E+07    1.8422194E-08    1.9245211E+08
      -3.94          390.000    3.150E+00    1.2176347E+08   -1.9158265E-08    2.2222696E+08
      -3.84          390.000    2.806E+00    1.7073867E+08   -1.3368455E-07    1.9399101E+08
      -3.74          390.000    2.195E+00    9.4304340E+07   -6.0158761E-08    1.2018855E+08
      -3.64          390.000    9.918E-01    6.0441927E+07   -5.2828117E-09    1.2714403E+08
      -3.54          390.000    4.305E-01    1.2957874E+08    1.2719999E-07    1.5137674E+08
      -3.44          390.000    2.381E-01    1.4007391E+08    2.9997528E-07    1.3312889E+08
      -3.34          390.000    1.279E-01    1.1324969E+08    1.9973219E-07    1.0145357E+08
      -3.24          390.000    5.603E-02    7.5297532E+07   -5.6205489E-08    6.6337799E+07
      -3.14          390.000    1.527E-02    3.5327701E+07   -2.7633236E-08    3.2970274E+07
      -3.04          390.000   -2.773E-03    1.6671281E+07   -2.1117093E-08    2.0984143E+07
      -2.94          390.000   -2.807E-02    4.7765679E+07    3.6501662E-08    4.4492879E+07
      -2.84          390.000   -8.437E-02    8.4052880E+07   -3.0342831E-08    8.0337633E+07
      -2.74          390.000   -1.800E-01    1.1403404E+08   -1.5330281E-08    1.1796833E+08
      -2.64          390.000   -3.276E-01    1.2883792E+08    7.1287163E-08    1.5731592E+08
      -2.54          390.000   -5.565E-01    1.0611250E+08    4.2674489E-08    2.0303963E+08
      -2.44          390.000   -8.443E-01    5.4830447E+07    9.2462675E-08    2.4546056E+08
      -2.34          390.000   -1.105E+00    3.4948656E+07   -3.2404244E-08    2.6154259E+08
      -2.24          390.000   -1.363E+00    4.0476851E+07   -2.8645828E-08    2.5136071E+08
      -2.14          390.000   -1.577E+00    4.3906814E+07   -1.3756507E-07    2.2815719E+08
      -2.04          390.000   -1.729E+00    3.7195290E+07   -5.1199445E-09    2.0270355E+08
      -1.94          390.000   -1.841E+00    2.6759020E+07   -3.7454650E-08    1.6934578E+08
      -1.84          390.000   -1.927E+00    1.5480532E+07   -4.9717756E-08    1.1681246E+08
# T(K) =   400.00   Npoints =      31   V(cm^3) =  4.649E-22
      -4.84          400.000    5.882E+00    2.8587674E+08    7.6457400E-09    1.7844708E+08
      -4.74          400.000    5.515E+00    3.1906551E+08   -2.1782956E-07    1.4041791E+08
      -4.64          400.000    5.182E+00    3.9081187E+08   -1.8824797E-07    9.6879267E+07
      -4.54          400.000    4.826E+00    4.7272417E+08   -1.1260571E-07    7.7372661E+07
      -4.44          400.000    4.453E+00    3.8831335E+08   -6.3561289E-07    7.3119998E+07
      -4.34          400.000    4.139E+00    2.0451973E+08   -1.7965357E-07    6.2555826E+07
      -4.24          400.000    3.890E+00    7.4961004E+07   -1.2056750E-07    7.8987124E+07
      -4.14          400.000    3.677E+00    5.7941612E+07   -4.0039303E-08    1.3129340E+08
      -4.04          400.000    3.433E+00    7.7056942E+07    1.7926118E-08    1.9213469E+08
      -3.94          400.000    3.149E+00    1.2189336E+08   -1.9657127E-08    2.2168397E+08
      -3.84          400.000    2.804E+00    1.6942075E+08   -1.3094432E-07    1.9353246E+08
      -3.74          400.000    2.188E+00    9.4718725E+07   -5.9424781E-08    1.2101950E+08
      -3.64          400.000    9.992E-01    6.1490139E+07   -4.6329682E-09    1.2716966E+08
      -3.54          400.000    4.338E-01    1.2896508E+08    1.2749545E-07    1.5099328E+08
      -3.44          400.000    2.389E-01    1.3973857E+08    2.9748762E-07    1.3300289E+08
      -3.34          400.000    1.283E-01    1.1313277E+08    1.9761914E-07    1.0141382E+08
      -3.24          400.000    5.633E-02    7.5284801E+07   -5.2886420E-08    6.6355809E+07
      -3.14          400.000    1.550E-02    3.5495374E+07   -2.7597263E-08    3.3170535E+07
      -3.04          400.000   -2.848E-03    1.7206783E+07   -2.0996724E-08    2.1338832E+07
      -2.94          400.000   -2.837E-02    4.7801685E+07    3.5667491E-08    4.4595562E+07
      -2.84          400.000   -8.475E-02    8.3998138E+07   -2.8936651E-08    8.0365484E+07
      -2.74          400.000   -1.805E-01    1.1389119E+08   -1.5348656E-08    1.1797614E+08
      -2.64          400.000   -3.283E-01    1.2848731E+08    7.0210712E-08    1.5737945E+08
      -2.54          400.000   -5.572E-01    1.0578995E+08    4.5259031E-08    2.0302263E+08
      -2.44          400.000   -8.440E-01    5.5154957E+07    9.0302702E-08    2.4518043E+08
      -2.34          400.000   -1.105E+00    3.5191829E+07   -3.0891107E-08    2.6131841E+08
      -2.24          400.000   -1.363E+00    4.0444803E+07   -3.0367946E-08    2.5121506E+08
      -2.14          400.000   -1.577E+00    4.3813328E+07   -1.3444276E-07    2.2812716E+08
      -2.04          400.000   -1.728E+00    3.7159237E+07   -6.8867476E-09    2.0265369E+08
      -1.94          400.000   -1.840E+00    2.6752351E+07   -3.7044713E-08    1.6914778E+08
      -1.84          400.000   -1.927E+00    1.5515881E+07   -4.9136975E-08    1.1652358E+08
# T(K) =   410.00   Npoints =      31   V(cm^3) =  4.649E-22
      -4.84          410.000    5.883E+00    2.8605450E+08    2.1788676E-09    1.7867721E+08
      -4.74          410.000    5.515E+00    3.1940452E+08   -2.1559575E-07    1.4029432E+08
      -4.64          410.000    5.182E+00    3.9101713E+08   -1.8842610E-07    9.7149829E+07
      -4.54          410.000    4.825E+00    4.7101888E+08   -1.2093434E-07    7.7524080E+07
      -4.44          410.000    4.454E+00    3.8734141E+08   -6.2045772E-07    7.3025600E+07
      -4.34          410.000    4.139E+00    2.0499040E+08   -1.8410208E-07    6.2824648E+07
      -4.24          410.000    3.890E+00    7.6146705E+07   -1.2073653E-07    7.9359291E+07
      -4.14          410.000    3.676E+00    5.8273295E+07   -4.0422762E-08    1.3137760E+08
      -4.04          410.000    3.433E+00    7.7301359E+07    1.7359755E-08    1.9181302E+08
      -3.94          410.000    3.149E+00    1.2200386E+08   -2.0183678E-08    2.2113020E+08
      -3.84          410.000    2.802E+00    1.6811657E+08   -1.2832800E-07    1.9307689E+08
      -3.74          410.000    2.181E+00    9.5131635E+07   -5.8782744E-08    1.2184468E+08
      -3.64          410.000    1.006E+00    6.2532727E+07   -3.9678018E-09    1.2721549E+08
      -3.54          410.000    4.372E-01    1.2836142E+08    1.2779126E-07    1.5060595E+08
      -3.44          410.000    2.397E-01    1.3939234E+08    2.9495483E-07    1.3287198E+08
      -3.34          410.000    1.287E-01    1.1301369E+08    1.9557058E-07    1.0137405E+08
      -3.24          410.000    5.664E-02    7.5271534E+07   -4.9639502E-08    6.6374983E+07
      -3.14          410.000    1.572E-02    3.5672868E+07   -2.7560591E-08    3.3376387E+07
      -3.04          410.000   -2.923E-03    1.7739808E+07   -2.0844160E-08    2.1696267E+07
      -2.94          410.000   -2.868E-02    4.7844290E+07    3.4802479E-08    4.4704985E+07
      -2.84          410.000   -8.514E-02    8.3941052E+07   -2.7604978E-08    8.0392883E+07
      -2.74          410.000   -1.811E-01    1.1374297E+08   -1.5287901E-08    1.1798678E+08
      -2.64          410.000   -3.291E-01    1.2813017E+08    6.9131528E-08    1.5744212E+08
      -2.54          410.000   -5.578E-01    1.0547143E+08    4.7602207E-08    2.0300109E+08
      -2.44          410.000   -8.437E-01    5.5477515E+07    8.8210983E-08    2.4490152E+08
      -2.34          410.000   -1.105E+00    3.5438682E+07   -2.9433513E-08    2.6108316E+08
      -2.24          410.000   -1.362E+00    4.0415744E+07   -3.1994481E-08    2.5107032E+08
      -2.14          410.000   -1.576E+00    4.3718656E+07   -1.3143704E-07    2.2809660E+08
      -2.04          410.000   -1.728E+00    3.7122038E+07   -8.6116838E-09    2.0259514E+08
      -1.94          410.000   -1.840E+00    2.6745476E+07   -3.6663031E-08    1.6895033E+08
      -1.84          410.000   -1.927E+00    1.5552249E+07   -4.8551826E-08    1.1624207E+08
# T(K) =   420.00   Npoints =      31   V(cm^3) =  4.649E-22
      -4.84          420.000    5.885E+00    2.8622534E+08   -3.0892805E-09    1.7888490E+08
      -4.74          420.000    5.516E+00    3.1974936E+08   -2.1336391E-07    1.4018174E+08
      -4.64          420.000    5.182E+00    3.9119538E+08   -1.8855929E-07    9.7417779E+07
      -4.54          420.000    4.825E+00    4.6931084E+08   -1.2890020E-07    7.7678328E+07
      -4.44          420.000    4.454E+00    3.8635415E+08   -6.0601997E-07    7.2939245E+07
      -4.34          420.000    4.140E+00    2.0547024E+08   -1.8839058E-07    6.3097209E+07
      -4.24          420.000    3.891E+00    7.7334670E+07   -1.2090076E-07    7.9733447E+07
      -4.14          420.000    3.676E+00    5.8623436E+07   -4.0801227E-08    1.3146218E+08
      -4.04          420.000    3.432E+00    7.7551465E+07    1.6731177E-08    1.9148712E+08
      -3.94          420.000    3.148E+00    1.2209536E+08   -2.0731249E-08    2.2056624E+08
      -3.84          420.000    2.799E+00    1.6682701E+08   -1.2582398E-07    1.9262477E+08
      -3.74          420.000    2.174E+00    9.5542342E+07   -5.8217963E-08    1.2266293E+08
      -3.64          420.000    1.013E+00    6.3568710E+07   -3.2883307E-09    1.2728007E+08
      -3.54          420.000    4.408E-01    1.2776844E+08    1.2808235E-07    1.5021561E+08
      -3.44          420.000    2.406E-01    1.3903588E+08    2.9238407E-07    1.3273609E+08
      -3.34          420.000    1.291E-01    1.1289192E+08    1.9358359E-07    1.0133396E+08
      -3.24          420.000    5.695E-02    7.5258071E+07   -4.6464936E-08    6.6395630E+07
      -3.14          420.000    1.595E-02    3.5859773E+07   -2.7518715E-08    3.3587559E+07
      -3.04          420.000   -2.999E-03    1.8270453E+07   -2.0663169E-08    2.2056396E+07
      -2.94          420.000   -2.899E-02    4.7893384E+07    3.3912167E-08    4.4820855E+07
      -2.84          420.000   -8.554E-02    8.3881910E+07   -2.6342943E-08    8.0420313E+07
      -2.74          420.000   -1.816E-01    1.1358940E+08   -1.5155258E-08    1.1799992E+08
      -2.64          420.000   -3.299E-01    1.2776678E+08    6.8055525E-08    1.5750401E+08
      -2.54          420.000   -5.584E-01    1.0515678E+08    4.9721710E-08    2.0297526E+08
      -2.44          420.000   -8.434E-01    5.5797825E+07    8.6187483E-08    2.4462315E+08
      -2.34          420.000   -1.105E+00    3.5688981E+07   -2.8031586E-08    2.6083811E+08
      -2.24          420.000   -1.362E+00    4.0389676E+07   -3.3525912E-08    2.5092564E+08
      -2.14          420.000   -1.576E+00    4.3622948E+07   -1.2854287E-07    2.2806496E+08
      -2.04          420.000   -1.728E+00    3.7083694E+07   -1.0292895E-08    2.0252905E+08
      -1.94          420.000   -1.840E+00    2.6738415E+07   -3.6309392E-08    1.6875263E+08
      -1.84          420.000   -1.927E+00    1.5589572E+07   -4.7964409E-08    1.1596825E+08
# T(K) =   430.00   Npoints =      31   V(cm^3) =  4.649E-22
      -4.84          430.000    5.886E+00    2.8638874E+08   -8.1626426E-09    1.7906996E+08
      -4.74          430.000    5.516E+00    3.2009922E+08   -2.1114400E-07    1.4007971E+08
      -4.64          430.000    5.182E+00    3.9134714E+08   -1.8865863E-07    9.7683233E+07
      -4.54          430.000    4.825E+00    4.6760060E+08   -1.3650853E-07    7.7835166E+07
      -4.44          430.000    4.455E+00    3.8535288E+08   -5.9226285E-07    7.2861091E+07
      -4.34          430.000    4.141E+00    2.0595790E+08   -1.9251315E-07    6.3373304E+07
      -4.24          430.000    3.891E+00    7.8524580E+07   -1.2106473E-07    8.0109477E+07
      -4.14          430.000    3.676E+00    5.8992045E+07   -4.1176217E-08    1.3154703E+08
      -4.04          430.000    3.432E+00    7.7807089E+07    1.6047530E-08    1.9115701E+08
      -3.94          430.000    3.147E+00    1.2216827E+08   -2.1294049E-08    2.1999269E+08
      -3.84          430.000    2.797E+00    1.6555287E+08   -1.2342203E-07    1.9217647E+08
      -3.74          430.000    2.167E+00    9.5950182E+07   -5.7717403E-08    1.2347322E+08
      -3.64          430.000    1.020E+00    6.4597169E+07   -2.5956646E-09    1.2736202E+08
      -3.54          430.000    4.444E-01    1.2718674E+08    1.2836446E-07    1.4982304E+08
      -3.44          430.000    2.416E-01    1.3866981E+08    2.8978169E-07    1.3259521E+08
      -3.34          430.000    1.295E-01    1.1276704E+08    1.9165525E-07    1.0129333E+08
      -3.24          430.000    5.728E-02    7.5244699E+07   -4.3362629E-08    6.6417997E+07
      -3.14          430.000    1.619E-02    3.6055691E+07   -2.7467692E-08    3.3803811E+07
      -3.04          430.000   -3.075E-03    1.8798805E+07   -2.0457280E-08    2.2419153E+07
      -2.94          430.000   -2.931E-02    4.7948873E+07    3.3001705E-08    4.4942925E+07
      -2.84          430.000   -8.595E-02    8.3820946E+07   -2.5146013E-08    8.0448186E+07
      -2.74          430.000   -1.821E-01    1.1343052E+08   -1.4957551E-08    1.1801532E+08
      -2.64          430.000   -3.307E-01    1.2739749E+08    6.6987666E-08    1.5756514E+08
      -2.54          430.000   -5.591E-01    1.0484588E+08    5.1633986E-08    2.0294531E+08
      -2.44          430.000   -8.431E-01    5.6115618E+07    8.4231750E-08    2.4434477E+08
      -2.34          430.000   -1.105E+00    3.5942490E+07   -2.6685204E-08    2.6058432E+08
      -2.24          430.000   -1.361E+00    4.0366602E+07   -3.4963321E-08    2.5078036E+08
      -2.14          430.000   -1.575E+00    4.3526350E+07   -1.2575550E-07    2.2803178E+08
      -2.04          430.000   -1.727E+00    3.7044208E+07   -1.1928847E-08    2.0245636E+08
      -1.94          430.000   -1.840E+00    2.6731188E+07   -3.5983340E-08    1.6855408E+08
      -1.84          430.000   -1.927E+00    1.5627785E+07   -4.7376615E-08    1.1570237E+08
# T(K) =   440.00   Npoints =      31   V(cm^3) =  4.649E-22
      -4.84          440.000    5.887E+00    2.8654429E+08   -1.3045251E-08    1.7923231E+08
      -4.74          440.000    5.516E+00    3.2045323E+08   -2.0894472E-07    1.3998772E+08
      -4.64          440.000    5.181E+00    3.9147289E+08   -1.8873365E-07    9.7946300E+07
      -4.54          440.000    4.825E+00    4.6588878E+08   -1.4376603E-07    7.7994398E+07
      -4.44          440.000    4.455E+00    3.8433878E+08   -5.7915091E-07    7.2791249E+07
      -4.34          440.000    4.141E+00    2.0645207E+08   -1.9646539E-07    6.3652751E+07
      -4.24          440.000    3.892E+00    7.9716125E+07   -1.2123239E-07    8.0487258E+07
      -4.14          440.000    3.676E+00    5.9379080E+07   -4.1549213E-08    1.3163203E+08
      -4.04          440.000    3.431E+00    7.8068058E+07    1.5315156E-08    1.9082271E+08
      -3.94          440.000    3.146E+00    1.2222307E+08   -2.1867070E-08    2.1941012E+08
      -3.84          440.000    2.794E+00    1.6429485E+08   -1.2111315E-07    1.9173234E+08
      -3.74          440.000    2.161E+00    9.6354556E+07   -5.7269525E-08    1.2427468E+08
      -3.64          440.000    1.027E+00    6.5617250E+07   -1.8909783E-09    1.2746002E+08
      -3.54          440.000    4.481E-01    1.2661680E+08    1.2863403E-07    1.4942900E+08
      -3.44          440.000    2.426E-01    1.3829474E+08    2.8715334E-07    1.3244932E+08
      -3.34          440.000    1.300E-01    1.1263873E+08    1.8978264E-07    1.0125197E+08
      -3.24          440.000    5.761E-02    7.5231658E+07   -4.0332246E-08    6.6442284E+07
      -3.14          440.000    1.642E-02    3.6260234E+07   -2.7404097E-08    3.4024930E+07
      -3.04          440.000   -3.153E-03    1.9324942E+07   -2.0229768E-08    2.2784464E+07
      -2.94          440.000   -2.963E-02    4.8010666E+07    3.2075863E-08    4.5070981E+07
      -2.84          440.000   -8.637E-02    8.3758359E+07   -2.4009963E-08    8.0476852E+07
      -2.74          440.000   -1.827E-01    1.1326635E+08   -1.4701198E-08    1.1803275E+08
      -2.64          440.000   -3.316E-01    1.2702260E+08    6.5932075E-08    1.5762551E+08
      -2.54          440.000   -5.597E-01    1.0453859E+08    5.3354310E-08    2.0291140E+08
      -2.44          440.000   -8.428E-01    5.6430653E+07    8.2342971E-08    2.4406595E+08
      -2.34          440.000   -1.105E+00    3.6198977E+07   -2.5394021E-08    2.6032269E+08
      -2.24          440.000   -1.361E+00    4.0346520E+07   -3.6308287E-08    2.5063391E+08
      -2.14          440.000   -1.574E+00    4.3429008E+07   -1.2307045E-07    2.2799668E+08
      -2.04          440.000   -1.727E+00    3.7003590E+07   -1.3518309E-08    2.0237781E+08
      -1.94          440.000   -1.839E+00    2.6723810E+07   -3.5684230E-08    1.6835422E+08
      -1.84          440.000   -1.927E+00    1.5666823E+07   -4.6790146E-08    1.1544462E+08
# T(K) =   450.00   Npoints =      31   V(cm^3) =  4.649E-22
      -4.84          450.000    5.888E+00    2.8669159E+08   -1.7741243E-08    1.7937190E+08
      -4.74          450.000    5.517E+00    3.2081052E+08   -2.0677365E-07    1.3990526E+08
      -4.64          450.000    5.181E+00    3.9157307E+08   -1.8879250E-07    9.8207075E+07
      -4.54          450.000    4.825E+00    4.6417600E+08   -1.5068060E-07    7.8155867E+07
      -4.44          450.000    4.456E+00    3.8331296E+08   -5.6665012E-07    7.2729795E+07
      -4.34          450.000    4.142E+00    2.0695154E+08   -2.0024433E-07    6.3935389E+07
      -4.24          450.000    3.892E+00    8.0908998E+07   -1.2140714E-07    8.0866662E+07
      -4.14          450.000    3.675E+00    5.9784454E+07   -4.1921644E-08    1.3171708E+08
      -4.04          450.000    3.431E+00    7.8334200E+07    1.4539697E-08    1.9048429E+08
      -3.94          450.000    3.146E+00    1.2226025E+08   -2.2446013E-08    2.1881910E+08
      -3.84          450.000    2.792E+00    1.6305359E+08   -1.1888940E-07    1.9129269E+08
      -3.74          450.000    2.154E+00    9.6754922E+07   -5.6864144E-08    1.2506654E+08
      -3.64          450.000    1.034E+00    6.6628157E+07   -1.1754899E-09    1.2757279E+08
      -3.54          450.000    4.519E-01    1.2605905E+08    1.2888807E-07    1.4903419E+08
      -3.44          450.000    2.436E-01    1.3791124E+08    2.8450408E-07    1.3229848E+08
      -3.34          450.000    1.304E-01    1.1250673E+08    1.8796293E-07    1.0120973E+08
      -3.24          450.000    5.795E-02    7.5219151E+07   -3.7373257E-08    6.6468650E+07
      -3.14          450.000    1.666E-02    3.6473021E+07   -2.7324984E-08    3.4250722E+07
      -3.04          450.000   -3.230E-03    1.9848930E+07   -1.9983656E-08    2.3152246E+07
      -2.94          450.000   -2.996E-02    4.8078678E+07    3.1139033E-08    4.5204841E+07
      -2.84          450.000   -8.680E-02    8.3694316E+07   -2.2930853E-08    8.0506612E+07
      -2.74          450.000   -1.832E-01    1.1309695E+08   -1.4392222E-08    1.1805204E+08
      -2.64          450.000   -3.324E-01    1.2664243E+08    6.4892137E-08    1.5768511E+08
      -2.54          450.000   -5.603E-01    1.0423481E+08    5.4896872E-08    2.0287367E+08
      -2.44          450.000   -8.426E-01    5.6742712E+07    8.0520028E-08    2.4378634E+08
      -2.34          450.000   -1.105E+00    3.6458211E+07   -2.4157479E-08    2.6005398E+08
      -2.24          450.000   -1.360E+00    4.0329428E+07   -3.7562790E-08    2.5048581E+08
      -2.14          450.000   -1.574E+00    4.3331065E+07   -1.2048347E-07    2.2795936E+08
      -2.04          450.000   -1.726E+00    3.6961852E+07   -1.5060338E-08    2.0229400E+08
      -1.94          450.000   -1.839E+00    2.6716297E+07   -3.5411259E-08    1.6815274E+08
      -1.84          450.000   -1.927E+00    1.5706619E+07   -4.6206528E-08    1.1519509E+08
# T(K) =   460.00   Npoints =      31   V(cm^3) =  4.649E-22
      -4.84          460.000    5.890E+00    2.8683035E+08   -2.2254864E-08    1.7948875E+08
      -4.74          460.000    5.517E+00    3.2117017E+08   -2.0463734E-07    1.3983178E+08
      -4.64          460.000    5.181E+00    3.9164811E+08   -1.8884210E-07    9.8465649E+07
      -4.54          460.000    4.825E+00    4.6246290E+08   -1.5726104E-07    7.8319450E+07
      -4.44          460.000    4.457E+00    3.8227643E+08   -5.5472791E-07    7.2676778E+07
      -4.34          460.000    4.142E+00    2.0745517E+08   -2.0384825E-07    6.4221073E+07
      -4.24          460.000    3.892E+00    8.2102894E+07   -1.2159184E-07    8.1247556E+07
      -4.14          460.000    3.675E+00    6.0208036E+07   -4.2294879E-08    1.3180205E+08
      -4.04          460.000    3.431E+00    7.8605341E+07    1.3726187E-08    1.9014179E+08
      -3.94          460.000    3.145E+00    1.2228038E+08   -2.3027202E-08    2.1822021E+08
      -3.84          460.000    2.789E+00    1.6182963E+08   -1.1674382E-07    1.9085776E+08
      -3.74          460.000    2.148E+00    9.7150794E+07   -5.6492297E-08    1.2584814E+08
      -3.64          460.000    1.040E+00    6.7629153E+07   -4.5044153E-10    1.2769913E+08
      -3.54          460.000    4.558E-01    1.2551381E+08    1.2912411E-07    1.4863925E+08
      -3.44          460.000    2.447E-01    1.3751986E+08    2.8183847E-07    1.3214274E+08
      -3.34          460.000    1.309E-01    1.1237084E+08    1.8619334E-07    1.0116648E+08
      -3.24          460.000    5.830E-02    7.5207347E+07   -3.4484978E-08    6.6497220E+07
      -3.14          460.000    1.689E-02    3.6693685E+07   -2.7227853E-08    3.4481012E+07
      -3.04          460.000   -3.309E-03    2.0370826E+07   -1.9721711E-08    2.3522415E+07
      -2.94          460.000   -3.029E-02    4.8152820E+07    3.0195241E-08    4.5344341E+07
      -2.84          460.000   -8.724E-02    8.3628959E+07   -2.1905005E-08    8.0537726E+07
      -2.74          460.000   -1.838E-01    1.1292234E+08   -1.4036261E-08    1.1807306E+08
      -2.64          460.000   -3.333E-01    1.2625732E+08    6.3870593E-08    1.5774393E+08
      -2.54          460.000   -5.610E-01    1.0393440E+08    5.6274839E-08    2.0283222E+08
      -2.44          460.000   -8.423E-01    5.7051600E+07    7.8761546E-08    2.4350567E+08
      -2.34          460.000   -1.104E+00    3.6719966E+07   -2.2974834E-08    2.5977882E+08
      -2.24          460.000   -1.360E+00    4.0315322E+07   -3.8729133E-08    2.5033569E+08
      -2.14          460.000   -1.573E+00    4.3232663E+07   -1.1799052E-07    2.2791954E+08
      -2.04          460.000   -1.726E+00    3.6919009E+07   -1.6554258E-08    2.0220540E+08
      -1.94          460.000   -1.839E+00    2.6708660E+07   -3.5163510E-08    1.6794941E+08
      -1.84          460.000   -1.927E+00    1.5747109E+07   -4.5627124E-08    1.1495388E+08
# T(K) =   470.00   Npoints =      31   V(cm^3) =  4.649E-22
      -4.84          470.000    5.891E+00    2.8696029E+08   -2.6590465E-08    1.7958295E+08
      -4.74          470.000    5.517E+00    3.2153126E+08   -2.0254138E-07    1.3976673E+08
      -4.64          470.000    5.181E+00    3.9169841E+08   -1.8888823E-07    9.8722100E+07
      -4.54          470.000    4.825E+00    4.6075014E+08   -1.6351683E-07    7.8485047E+07
      -4.44          470.000    4.457E+00    3.8123016E+08   -5.4335325E-07    7.2632221E+07
      -4.34          470.000    4.143E+00    2.0796188E+08   -2.0727654E-07    6.4509677E+07
      -4.24          470.000    3.893E+00    8.3297510E+07   -1.2178885E-07    8.1629800E+07
      -4.14          470.000    3.675E+00    6.0649653E+07   -4.2670213E-08    1.3188685E+08
      -4.04          470.000    3.430E+00    7.8881310E+07    1.2879124E-08    1.8979527E+08
      -3.94          470.000    3.144E+00    1.2228401E+08   -2.3607524E-08    2.1761400E+08
      -3.84          470.000    2.786E+00    1.6062346E+08   -1.1467025E-07    1.9042777E+08
      -3.74          470.000    2.142E+00    9.7541738E+07   -5.6146117E-08    1.2661891E+08
      -3.64          470.000    1.047E+00    6.8619560E+07    2.8291609E-10    1.2783791E+08
      -3.54          470.000    4.598E-01    1.2498134E+08    1.2934009E-07    1.4824480E+08
      -3.44          470.000    2.459E-01    1.3712113E+08    2.7916060E-07    1.3198219E+08
      -3.34          470.000    1.314E-01    1.1223091E+08    1.8447118E-07    1.0112213E+08
      -3.24          470.000    5.865E-02    7.5196389E+07   -3.1666599E-08    6.6528096E+07
      -3.14          470.000    1.713E-02    3.6921865E+07   -2.7110610E-08    3.4715640E+07
      -3.04          470.000   -3.388E-03    2.0890681E+07   -1.9446450E-08    2.3894883E+07
      -2.94          470.000   -3.063E-02    4.8233002E+07    2.9248166E-08    4.5489339E+07
      -2.84          470.000   -8.769E-02    8.3562414E+07   -2.0928988E-08    8.0570421E+07
      -2.74          470.000   -1.844E-01    1.1274258E+08   -1.3638584E-08    1.1809569E+08
      -2.64          470.000   -3.341E-01    1.2586755E+08    6.2869625E-08    1.5780192E+08
      -2.54          470.000   -5.616E-01    1.0363726E+08    5.7500437E-08    2.0278715E+08
      -2.44          470.000   -8.421E-01    5.7357141E+07    7.7065941E-08    2.4322375E+08
      -2.34          470.000   -1.104E+00    3.6984016E+07   -2.1845171E-08    2.5949776E+08
      -2.24          470.000   -1.359E+00    4.0304193E+07   -3.9809874E-08    2.5018322E+08
      -2.14          470.000   -1.572E+00    4.3133937E+07   -1.1558777E-07    2.2787701E+08
      -2.04          470.000   -1.725E+00    3.6875083E+07   -1.7999636E-08    2.0211238E+08
      -1.94          470.000   -1.839E+00    2.6700910E+07   -3.4939974E-08    1.6774410E+08
      -1.84          470.000   -1.927E+00    1.5788228E+07   -4.5053149E-08    1.1472098E+08
# T(K) =   480.00   Npoints =      31   V(cm^3) =  4.649E-22
      -4.84          480.000    5.892E+00    2.8708120E+08   -3.0752495E-08    1.7965465E+08
      -4.74          480.000    5.518E+00    3.2189288E+08   -2.0049050E-07    1.3970955E+08
      -4.64          480.000    5.180E+00    3.9172440E+08   -1.8893567E-07    9.8976501E+07
      -4.54          480.000    4.825E+00    4.5903834E+08   -1.6945798E-07    7.8652583E+07
      -4.44          480.000    4.458E+00    3.8017505E+08   -5.3249659E-07    7.2596130E+07
      -4.34          480.000    4.144E+00    2.0847068E+08   -2.1052960E-07    6.4801085E+07
      -4.24          480.000    3.893E+00    8.4492543E+07   -1.2200008E-07    8.2013255E+07
      -4.14          480.000    3.674E+00    6.1109095E+07   -4.3048862E-08    1.3197136E+08
      -4.04          480.000    3.430E+00    7.9161940E+07    1.2002541E-08    1.8944482E+08
      -3.94          480.000    3.143E+00    1.2227176E+08   -2.4184355E-08    2.1700101E+08
      -3.84          480.000    2.783E+00    1.5943551E+08   -1.1266328E-07    1.9000288E+08
      -3.74          480.000    2.136E+00    9.7927365E+07   -5.5818730E-08    1.2737838E+08
      -3.64          480.000    1.053E+00    6.9598756E+07    1.0233374E-09    1.2798804E+08
      -3.54          480.000    4.639E-01    1.2446183E+08    1.2953433E-07    1.4785140E+08
      -3.44          480.000    2.471E-01    1.3671558E+08    2.7647421E-07    1.3181691E+08
      -3.34          480.000    1.319E-01    1.1208685E+08    1.8279387E-07    1.0107660E+08
      -3.24          480.000    5.902E-02    7.5186396E+07   -2.8917215E-08    6.6561355E+07
      -3.14          480.000    1.738E-02    3.7157210E+07   -2.6971534E-08    3.4954454E+07
      -3.04          480.000   -3.467E-03    2.1408538E+07   -1.9160150E-08    2.4269558E+07
      -2.94          480.000   -3.097E-02    4.8319128E+07    2.8301147E-08    4.5639706E+07
      -2.84          480.000   -8.815E-02    8.3494792E+07   -1.9999600E-08    8.0604893E+07
      -2.74          480.000   -1.850E-01    1.1255772E+08   -1.3204098E-08    1.1811983E+08
      -2.64          480.000   -3.350E-01    1.2547346E+08    6.1890927E-08    1.5785903E+08
      -2.54          480.000   -5.622E-01    1.0334329E+08    5.8585006E-08    2.0273852E+08
      -2.44          480.000   -8.419E-01    5.7659179E+07    7.5431454E-08    2.4294041E+08
      -2.34          480.000   -1.104E+00    3.7250141E+07   -2.0767430E-08    2.5921127E+08
      -2.24          480.000   -1.359E+00    4.0296034E+07   -4.0807763E-08    2.5002815E+08
      -2.14          480.000   -1.572E+00    4.3035024E+07   -1.1327156E-07    2.2783156E+08
      -2.04          480.000   -1.725E+00    3.6830095E+07   -1.9396263E-08    2.0201527E+08
      -1.94          480.000   -1.838E+00    2.6693056E+07   -3.4739577E-08    1.6753675E+08
      -1.84          480.000   -1.927E+00    1.5829913E+07   -4.4485682E-08    1.1449637E+08
# T(K) =   490.00   Npoints =      31   V(cm^3) =  4.649E-22
      -4.84          490.000    5.894E+00    2.8719291E+08   -3.4745490E-08    1.7970403E+08
      -4.74          490.000    5.518E+00    3.2225411E+08   -1.9848865E-07    1.3965969E+08
      -4.64          490.000    5.180E+00    3.9172646E+08   -1.8898834E-07    9.9228917E+07
      -4.54          490.000    4.825E+00    4.5732812E+08   -1.7509482E-07    7.8821997E+07
      -4.44          490.000    4.459E+00    3.7911196E+08   -5.2212986E-07    7.2568497E+07
      -4.34          490.000    4.145E+00    2.0898062E+08   -2.1360870E-07    6.5095195E+07
      -4.24          490.000    3.893E+00    8.5687689E+07   -1.2222701E-07    8.2397774E+07
      -4.14          490.000    3.674E+00    6.1586116E+07   -4.3431956E-08    1.3205547E+08
      -4.04          490.000    3.429E+00    7.9447068E+07    1.1100056E-08    1.8909053E+08
      -3.94          490.000    3.142E+00    1.2224423E+08   -2.4755507E-08    2.1638179E+08
      -3.84          490.000    2.780E+00    1.5826613E+08   -1.1071812E-07    1.8958322E+08
      -3.74          490.000    2.131E+00    9.8307332E+07   -5.5504149E-08    1.2812612E+08
      -3.64          490.000    1.059E+00    7.0566170E+07    1.7695930E-09    1.2814850E+08
      -3.54          490.000    4.681E-01    1.2395542E+08    1.2970545E-07    1.4745958E+08
      -3.44          490.000    2.483E-01    1.3630372E+08    2.7378268E-07    1.3164702E+08
      -3.34          490.000    1.324E-01    1.1193859E+08    1.8115892E-07    1.0102985E+08
      -3.24          490.000    5.939E-02    7.5177468E+07   -2.6235839E-08    6.6597058E+07
      -3.14          490.000    1.762E-02    3.7399380E+07   -2.6809246E-08    3.5197315E+07
      -3.04          490.000   -3.547E-03    2.1924434E+07   -1.8864852E-08    2.4646353E+07
      -2.94          490.000   -3.132E-02    4.8411095E+07    2.7357210E-08    4.5795323E+07
      -2.84          490.000   -8.862E-02    8.3426191E+07   -1.9113852E-08    8.0641316E+07
      -2.74          490.000   -1.857E-01    1.1236784E+08   -1.2737366E-08    1.1814543E+08
      -2.64          490.000   -3.359E-01    1.2507534E+08    6.0935774E-08    1.5791523E+08
      -2.54          490.000   -5.629E-01    1.0305238E+08    5.9539065E-08    2.0268642E+08
      -2.44          490.000   -8.417E-01    5.7957574E+07    7.3856196E-08    2.4265555E+08
      -2.34          490.000   -1.104E+00    3.7518122E+07   -1.9740424E-08    2.5891975E+08
      -2.24          490.000   -1.358E+00    4.0290831E+07   -4.1725694E-08    2.4987025E+08
      -2.14          490.000   -1.571E+00    4.2936052E+07   -1.1103837E-07    2.2778304E+08
      -2.04          490.000   -1.725E+00    3.6784073E+07   -2.0744130E-08    2.0191428E+08
      -1.94          490.000   -1.838E+00    2.6685105E+07   -3.4561203E-08    1.6732736E+08
      -1.84          490.000   -1.927E+00    1.5872102E+07   -4.3925673E-08    1.1427999E+08
# T(K) =   500.00   Npoints =      31   V(cm^3) =  4.649E-22
      -4.84          500.000    5.895E+00    2.8729529E+08   -3.8574063E-08    1.7973133E+08
      -4.74          500.000    5.519E+00    3.2261405E+08   -1.9653908E-07    1.3961656E+08
      -4.64          500.000    5.180E+00    3.9170499E+08   -1.8904936E-07    9.9479407E+07
      -4.54          500.000    4.824E+00    4.5562009E+08   -1.8043792E-07    7.8993245E+07
      -4.44          500.000    4.459E+00    3.7804171E+08   -5.1222647E-07    7.2549296E+07
      -4.34          500.000    4.145E+00    2.0949083E+08   -2.1651587E-07    6.5391914E+07
      -4.24          500.000    3.894E+00    8.6882647E+07   -1.2247074E-07    8.2783211E+07
      -4.14          500.000    3.674E+00    6.2080439E+07   -4.3820538E-08    1.3213907E+08
      -4.04          500.000    3.429E+00    7.9736536E+07    1.0174924E-08    1.8873247E+08
      -3.94          500.000    3.141E+00    1.2220207E+08   -2.5319173E-08    2.1575685E+08
      -3.84          500.000    2.777E+00    1.5711562E+08   -1.0883054E-07    1.8916890E+08
      -3.74          500.000    2.125E+00    9.8681337E+07   -5.5197182E-08    1.2886179E+08
      -3.64          500.000    1.065E+00    7.1521283E+07    2.5204785E-09    1.2831833E+08
      -3.54          500.000    4.723E-01    1.2346219E+08    1.2985237E-07    1.4706984E+08
      -3.44          500.000    2.497E-01    1.3588606E+08    2.7108911E-07    1.3147266E+08
      -3.34          500.000    1.330E-01    1.1178609E+08    1.7956398E-07    1.0098182E+08
      -3.24          500.000    5.977E-02    7.5169686E+07   -2.3621426E-08    6.6635250E+07
      -3.14          500.000    1.787E-02    3.7648043E+07   -2.6622679E-08    3.5444090E+07
      -3.04          500.000   -3.628E-03    2.2438398E+07   -1.8562376E-08    2.5025177E+07
      -2.94          500.000   -3.167E-02    4.8508796E+07    2.6419077E-08    4.5956080E+07
      -2.84          500.000   -8.910E-02    8.3356701E+07   -1.8268955E-08    8.0679843E+07
      -2.74          500.000   -1.863E-01    1.1217300E+08   -1.2242618E-08    1.1817241E+08
      -2.64          500.000   -3.368E-01    1.2467349E+08    6.0005081E-08    1.5797045E+08
      -2.54          500.000   -5.635E-01    1.0276444E+08    6.0372374E-08    2.0263089E+08
      -2.44          500.000   -8.415E-01    5.8252200E+07    7.2338174E-08    2.4236907E+08
      -2.34          500.000   -1.104E+00    3.7787745E+07   -1.8762856E-08    2.5862354E+08
      -2.24          500.000   -1.358E+00    4.0288569E+07   -4.2566660E-08    2.4970935E+08
      -2.14          500.000   -1.570E+00    4.2837148E+07   -1.0888484E-07    2.2773128E+08
      -2.04          500.000   -1.724E+00    3.6737048E+07   -2.2043407E-08    2.0180963E+08
      -1.94          500.000   -1.838E+00    2.6677062E+07   -3.4403711E-08    1.6711595E+08
      -1.84          500.000   -1.927E+00    1.5914734E+07   -4.3373957E-08    1.1407175E+08
