# 0 [Electrical conductivity in SI units, i.e. in 1/Ohm/m]
# Mu(eV) T(K) N(#carriers) sigma_xx sigma_xy sigma_xz sigma_yy sigma_yz sigma_zz
# T(K) = 300.00   Npoints =     901   V(cm^3) =  3.483E-22
   -9.50   300.000    1.594E+01    4.6254378E+05    1.8389892E-08    1.8163385E-08    4.6254378E+05    3.9724410E-08    4.6254378E+05
   -9.49   300.000    1.594E+01    5.1068296E+05    1.7364106E-08    1.7082723E-08    5.1068296E+05    4.2186238E-08    5.1068296E+05
   -9.48   300.000    1.594E+01    5.7274628E+05    1.7051999E-08    1.6714120E-08    5.7274628E+05    4.6757937E-08    5.7274628E+05
   -9.47   300.000    1.593E+01    6.5220838E+05    1.7575271E-08    1.7180891E-08    6.5220838E+05    5.3869514E-08    6.5220838E+05
   -9.46   300.000    1.593E+01    7.5119618E+05    1.8891374E-08    1.8440242E-08    7.5119618E+05    6.3405861E-08    7.5119618E+05
   -9.45   300.000    1.593E+01    8.6735175E+05    2.0762114E-08    2.0254572E-08    8.6735175E+05    7.4456587E-08    8.6735175E+05
   -9.44   300.000    1.592E+01    9.9089771E+05    2.2724945E-08    2.2165938E-08    9.9089771E+05    8.5181024E-08    9.9089771E+05
   -9.43   300.000    1.591E+01    1.1056660E+06    2.4159069E-08    2.3562536E-08    1.1056660E+06    9.3098039E-08    1.1056660E+06
   -9.42   300.000    1.591E+01    1.1957590E+06    2.4494859E-08    2.3884239E-08    1.1957590E+06    9.5952408E-08    1.1957590E+06
   -9.41   300.000    1.590E+01    1.2540039E+06    2.3476376E-08    2.2879322E-08    1.2540039E+06    9.2782310E-08    1.2540039E+06
   -9.40   300.000    1.589E+01    1.2847282E+06    2.1283530E-08    2.0723720E-08    1.2847282E+06    8.4407925E-08    1.2847282E+06
   -9.39   300.000    1.589E+01    1.2974818E+06    1.8408945E-08    1.7900415E-08    1.2974818E+06    7.2920816E-08    1.2974818E+06
   -9.38   300.000    1.588E+01    1.2971537E+06    1.5395234E-08    1.4942189E-08    1.2971537E+06    6.0608065E-08    1.2971537E+06
   -9.37   300.000    1.587E+01    1.2794404E+06    1.2627856E-08    1.2228465E-08    1.2794404E+06    4.9104829E-08    1.2794404E+06
   -9.36   300.000    1.587E+01    1.2352818E+06    1.0280124E-08    9.9308124E-09    1.2352818E+06    3.9162876E-08    1.2352818E+06
   -9.35   300.000    1.586E+01    1.1601431E+06    8.3743959E-09    8.0722133E-09    1.1601431E+06    3.0886012E-08    1.1601431E+06
   -9.34   300.000    1.586E+01    1.0608463E+06    6.8744200E-09    6.6169861E-09    1.0608463E+06    2.4094412E-08    1.0608463E+06
   -9.33   300.000    1.585E+01    9.5541237E+05    5.7470097E-09    5.5309491E-09    9.5541237E+05    1.8580312E-08    9.5541237E+05
   -9.32   300.000    1.585E+01    8.6686812E+05    4.9763052E-09    4.7955730E-09    8.6686812E+05    1.4193677E-08    8.6686812E+05
   -9.31   300.000    1.584E+01    8.1563236E+05    4.5466933E-09    4.3916841E-09    8.1563236E+05    1.0819498E-08    8.1563236E+05
   -9.30   300.000    1.584E+01    8.1442572E+05    4.4176235E-09    4.2749398E-09    8.1442572E+05    8.3337895E-09    8.1442572E+05
   -9.29   300.000    1.584E+01    8.6653304E+05    4.5047072E-09    4.3569140E-09    8.6653304E+05    6.5836521E-09    8.6653304E+05
   -9.28   300.000    1.583E+01    9.6644047E+05    4.6758586E-09    4.5008240E-09    9.6644047E+05    5.3939950E-09    9.6644047E+05
   -9.27   300.000    1.583E+01    1.1023355E+06    4.7727550E-09    4.5428488E-09    1.1023355E+06    4.5908216E-09    1.1023355E+06
   -9.26   300.000    1.582E+01    1.2605021E+06    4.6613306E-09    4.3432272E-09    1.2605021E+06    4.0326309E-09    1.2605021E+06
   -9.25   300.000    1.582E+01    1.4303463E+06    4.2904728E-09    3.8461505E-09    1.4303463E+06    3.6370879E-09    1.4303463E+06
   -9.24   300.000    1.581E+01    1.6070284E+06    3.7175901E-09    3.1065279E-09    1.6070284E+06    3.3840292E-09    1.6070284E+06
   -9.23   300.000    1.580E+01    1.7895983E+06    3.0772498E-09    2.2599580E-09    1.7895983E+06    3.2866188E-09    1.7895983E+06
   -9.22   300.000    1.579E+01    1.9758230E+06    2.5137207E-09    1.4582792E-09    1.9758230E+06    3.3482596E-09    1.9758230E+06
   -9.21   300.000    1.578E+01    2.1568778E+06    2.1210395E-09    8.1486471E-10    2.1568778E+06    3.5364953E-09    2.1568778E+06
   -9.20   300.000    1.577E+01    2.3149111E+06    1.9186398E-09    3.8358456E-10    2.3149111E+06    3.7905440E-09    2.3149111E+06
   -9.19   300.000    1.576E+01    2.4260716E+06    1.8636223E-09    1.6545061E-10    2.4260716E+06    4.0519799E-09    2.4260716E+06
   -9.18   300.000    1.575E+01    2.4697894E+06    1.8850660E-09    1.2653370E-10    2.4697894E+06    4.2938291E-09    2.4697894E+06
   -9.17   300.000    1.574E+01    2.4399323E+06    1.9217328E-09    2.1759327E-10    2.4399323E+06    4.5297415E-09    2.4399323E+06
   -9.16   300.000    1.573E+01    2.3491901E+06    1.9468475E-09    3.9314074E-10    2.3491901E+06    4.8011058E-09    2.3491901E+06
   -9.15   300.000    1.571E+01    2.2221943E+06    1.9725020E-09    6.2739724E-10    2.2221943E+06    5.1535483E-09    2.2221943E+06
   -9.14   300.000    1.570E+01    2.0832807E+06    2.0389544E-09    9.2260956E-10    2.0832807E+06    5.6196024E-09    2.0832807E+06
   -9.13   300.000    1.569E+01    1.9492228E+06    2.2002659E-09    1.3076942E-09    1.9492228E+06    6.2193834E-09    1.9492228E+06
   -9.12   300.000    1.568E+01    1.8309195E+06    2.5137367E-09    1.8298966E-09    1.8309195E+06    6.9789679E-09    1.8309195E+06
   -9.11   300.000    1.567E+01    1.7394239E+06    3.0349831E-09    2.5449666E-09    1.7394239E+06    7.9546809E-09    1.7394239E+06
   -9.10   300.000    1.566E+01    1.6891306E+06    3.8181447E-09    3.5106035E-09    1.6891306E+06    9.2458399E-09    1.6891306E+06
   -9.09   300.000    1.565E+01    1.6945969E+06    4.9183478E-09    4.7835767E-09    1.6945969E+06    1.0982715E-08    1.6945969E+06
   -9.08   300.000    1.563E+01    1.7632695E+06    6.3923762E-09    6.4178126E-09    1.7632695E+06    1.3293026E-08    1.7632695E+06
   -9.07   300.000    1.562E+01    1.8898787E+06    8.2973437E-09    8.4634571E-09    1.8898787E+06    1.6268343E-08    1.8898787E+06
   -9.06   300.000    1.561E+01    2.0572548E+06    1.0689843E-08    1.0969031E-08    2.0572548E+06    1.9951990E-08    2.0572548E+06
   -9.05   300.000    1.559E+01    2.2437466E+06    1.3619240E-08    1.3979112E-08    2.2437466E+06    2.4347634E-08    2.2437466E+06
   -9.04   300.000    1.557E+01    2.4322882E+06    1.7093665E-08    1.7503452E-08    2.4322882E+06    2.9423877E-08    2.4322882E+06
   -9.03   300.000    1.555E+01    2.6149612E+06    2.1002929E-08    2.1439084E-08    2.6149612E+06    3.5096303E-08    2.6149612E+06
   -9.02   300.000    1.552E+01    2.7912727E+06    2.5030229E-08    2.5477321E-08    2.7912727E+06    4.1202617E-08    2.7912727E+06
   -9.01   300.000    1.550E+01    2.9627820E+06    2.8641593E-08    2.9087895E-08    2.9627820E+06    4.7498258E-08    2.9627820E+06
   -9.00   300.000    1.547E+01    3.1264288E+06    3.1225800E-08    3.1656405E-08    3.1264288E+06    5.3665789E-08    3.1264288E+06
   -8.99   300.000    1.544E+01    3.2684638E+06    3.2335291E-08    3.2726443E-08    3.2684638E+06    5.9307906E-08    3.2684638E+06
   -8.98   300.000    1.541E+01    3.3637903E+06    3.1866549E-08    3.2184048E-08    3.3637903E+06    6.3933107E-08    3.3637903E+06
   -8.97   300.000    1.538E+01    3.3853458E+06    3.0067051E-08    3.0270594E-08    3.3853458E+06    6.6996997E-08    3.3853458E+06
   -8.96   300.000    1.535E+01    3.3199160E+06    2.7406542E-08    2.7460077E-08    3.3199160E+06    6.8033968E-08    3.3199160E+06
   -8.95   300.000    1.531E+01    3.1786252E+06    2.4416146E-08    2.4300425E-08    3.1786252E+06    6.6823006E-08    3.1786252E+06
   -8.94   300.000    1.528E+01    2.9938856E+06    2.1559258E-08    2.1279845E-08    2.9938856E+06    6.3506795E-08    2.9938856E+06
   -8.93   300.000    1.525E+01    2.8062968E+06    1.9154855E-08    1.8740710E-08    2.8062968E+06    5.8617195E-08    2.8062968E+06
   -8.92   300.000    1.521E+01    2.6507396E+06    1.7353423E-08    1.6846723E-08    2.6507396E+06    5.2960966E-08    2.6507396E+06
   -8.91   300.000    1.518E+01    2.5473342E+06    1.6154976E-08    1.5597759E-08    2.5473342E+06    4.7369120E-08    2.5473342E+06
   -8.90   300.000    1.515E+01    2.4986006E+06    1.5460500E-08    1.4884993E-08    2.4986006E+06    4.2444347E-08    2.4986006E+06
   -8.89   300.000    1.512E+01    2.4934813E+06    1.5146586E-08    1.4572979E-08    2.4934813E+06    3.8460258E-08    2.4934813E+06
   -8.88   300.000    1.508E+01    2.5175349E+06    1.5135017E-08    1.4575027E-08    2.5175349E+06    3.5420882E-08    2.5175349E+06
   -8.87   300.000    1.505E+01    2.5638360E+06    1.5418941E-08    1.4880190E-08    2.5638360E+06    3.3177789E-08    2.5638360E+06
   -8.86   300.000    1.502E+01    2.6363767E+06    1.6028806E-08    1.5516217E-08    2.6363767E+06    3.1526759E-08    2.6363767E+06
   -8.85   300.000    1.499E+01    2.7427810E+06    1.6956980E-08    1.6471214E-08    2.7427810E+06    3.0263496E-08    2.7427810E+06
   -8.84   300.000    1.495E+01    2.8820549E+06    1.8082133E-08    1.7617834E-08    2.8820549E+06    2.9193756E-08    2.8820549E+06
   -8.83   300.000    1.492E+01    3.0368883E+06    1.9139275E-08    1.8685513E-08    3.0368883E+06    2.8109624E-08    3.0368883E+06
   -8.82   300.000    1.489E+01    3.1760554E+06    1.9769816E-08    1.9312782E-08    3.1760554E+06    2.6775067E-08    3.1760554E+06
   -8.81   300.000    1.486E+01    3.2655467E+06    1.9648852E-08    1.9175224E-08    3.2655467E+06    2.4961918E-08    3.2655467E+06
   -8.80   300.000    1.483E+01    3.2819588E+06    1.8629474E-08    1.8128858E-08    3.2819588E+06    2.2534970E-08    3.2819588E+06
   -8.79   300.000    1.480E+01    3.2202454E+06    1.6811888E-08    1.6277550E-08    3.2202454E+06    1.9537422E-08    3.2202454E+06
   -8.78   300.000    1.478E+01    3.0915406E+06    1.4490461E-08    1.3918588E-08    3.0915406E+06    1.6210544E-08    3.0915406E+06
   -8.77   300.000    1.475E+01    2.9141358E+06    1.2024330E-08    1.1412895E-08    2.9141358E+06    1.2921548E-08    2.9141358E+06
   -8.76   300.000    1.473E+01    2.7054810E+06    9.7193455E-09    9.0672326E-09    2.7054810E+06    1.0041263E-08    2.7054810E+06
   -8.75   300.000    1.471E+01    2.4807549E+06    7.7723832E-09    7.0777641E-09    2.4807549E+06    7.8385486E-09    2.4807549E+06
   -8.74   300.000    1.469E+01    2.2566857E+06    6.2741862E-09    5.5309515E-09    2.2566857E+06    6.4323696E-09    2.2566857E+06
   -8.73   300.000    1.467E+01    2.0541897E+06    5.2405155E-09    4.4340216E-09    2.0541897E+06    5.8059288E-09    2.0541897E+06
   -8.72   300.000    1.465E+01    1.8952985E+06    4.6440768E-09    3.7492822E-09    1.8952985E+06    5.8603341E-09    1.8952985E+06
   -8.71   300.000    1.464E+01    1.7968408E+06    4.4356607E-09    3.4189888E-09    1.7968408E+06    6.4718444E-09    1.7968408E+06
   -8.70   300.000    1.462E+01    1.7667923E+06    4.5557814E-09    3.3790047E-09    1.7667923E+06    7.5234559E-09    1.7667923E+06
   -8.69   300.000    1.461E+01    1.8053280E+06    4.9404369E-09    3.5645879E-09    1.8053280E+06    8.9021871E-09    1.8053280E+06
   -8.68   300.000    1.460E+01    1.9070082E+06    5.5222937E-09    3.9123529E-09    1.9070082E+06    1.0473778E-08    1.9070082E+06
   -8.67   300.000    1.458E+01    2.0598991E+06    6.2294640E-09    4.3626750E-09    2.0598991E+06    1.2063305E-08    2.0598991E+06
   -8.66   300.000    1.457E+01    2.2419734E+06    6.9857219E-09    4.8645091E-09    2.2419734E+06    1.3474852E-08    2.2419734E+06
   -8.65   300.000    1.456E+01    2.4192810E+06    7.7115537E-09    5.3769884E-09    2.4192810E+06    1.4555109E-08    2.4192810E+06
   -8.64   300.000    1.455E+01    2.5499961E+06    8.3215288E-09    5.8591626E-09    2.5499961E+06    1.5255997E-08    2.5499961E+06
   -8.63   300.000    1.453E+01    2.5951049E+06    8.7235644E-09    6.2538818E-09    2.5951049E+06    1.5641163E-08    2.5951049E+06
   -8.62   300.000    1.452E+01    2.5327248E+06    8.8373541E-09    6.4897394E-09    2.5327248E+06    1.5838882E-08    2.5327248E+06
   -8.61   300.000    1.451E+01    2.3691400E+06    8.6340302E-09    6.5137640E-09    2.3691400E+06    1.5995719E-08    2.3691400E+06
   -8.60   300.000    1.450E+01    2.1385755E+06    8.1662102E-09    6.3302555E-09    2.1385755E+06    1.6255229E-08    2.1385755E+06
   -8.59   300.000    1.449E+01    1.8899240E+06    7.5524497E-09    6.0045450E-09    1.8899240E+06    1.6725063E-08    1.8899240E+06
   -8.58   300.000    1.448E+01    1.6680972E+06    6.9178388E-09    5.6212436E-09    1.6680972E+06    1.7404877E-08    1.6680972E+06
   -8.57   300.000    1.447E+01    1.5007258E+06    6.3324094E-09    5.2305142E-09    1.5007258E+06    1.8118738E-08    1.5007258E+06
   -8.56   300.000    1.446E+01    1.3956434E+06    5.7903515E-09    4.8254181E-09    1.3956434E+06    1.8536531E-08    1.3956434E+06
   -8.55   300.000    1.446E+01    1.3474230E+06    5.2404369E-09    4.3651614E-09    1.3474230E+06    1.8321174E-08    1.3474230E+06
   -8.54   300.000    1.445E+01    1.3470145E+06    4.6411535E-09    3.8223697E-09    1.3470145E+06    1.7326517E-08    1.3470145E+06
   -8.53   300.000    1.444E+01    1.3879884E+06    3.9988633E-09    3.2160569E-09    1.3879884E+06    1.5698346E-08    1.3879884E+06
   -8.52   300.000    1.444E+01    1.4661350E+06    3.3661399E-09    2.6085697E-09    1.4661350E+06    1.3798515E-08    1.4661350E+06
   -8.51   300.000    1.443E+01    1.5745977E+06    2.8127143E-09    2.0770903E-09    1.5745977E+06    1.2021781E-08    1.5745977E+06
   -8.50   300.000    1.442E+01    1.6996760E+06    2.3966168E-09    1.6843862E-09    1.6996760E+06    1.0637315E-08    1.6996760E+06
   -8.49   300.000    1.441E+01    1.8204907E+06    2.1488964E-09    1.4620571E-09    1.8204907E+06    9.7231691E-09    1.8204907E+06
   -8.48   300.000    1.441E+01    1.9124493E+06    2.0668439E-09    1.4043654E-09    1.9124493E+06    9.1825997E-09    1.9124493E+06
   -8.47   300.000    1.440E+01    1.9535988E+06    2.1094183E-09    1.4680524E-09    1.9535988E+06    8.8080157E-09    1.9535988E+06
   -8.46   300.000    1.439E+01    1.9323927E+06    2.2006712E-09    1.5803595E-09    1.9323927E+06    8.3678334E-09    1.9323927E+06
   -8.45   300.000    1.439E+01    1.8529470E+06    2.2518522E-09    1.6604960E-09    1.8529470E+06    7.6944657E-09    1.8529470E+06
   -8.44   300.000    1.438E+01    1.7336243E+06    2.1974726E-09    1.6494910E-09    1.7336243E+06    6.7434459E-09    1.7336243E+06
   -8.43   300.000    1.437E+01    1.5992913E+06    2.0212307E-09    1.5302038E-09    1.5992913E+06    5.5951642E-09    1.5992913E+06
   -8.42   300.000    1.437E+01    1.4720458E+06    1.7530785E-09    1.3241772E-09    1.4720458E+06    4.3990558E-09    1.4720458E+06
   -8.41   300.000    1.436E+01    1.3651347E+06    1.4445589E-09    1.0719388E-09    1.3651347E+06    3.2982645E-09    1.3651347E+06
   -8.40   300.000    1.435E+01    1.2816559E+06    1.1433674E-09    8.1343581E-10    1.2816559E+06    2.3807078E-09    1.2816559E+06
   -8.39   300.000    1.435E+01    1.2173571E+06    8.7970424E-10    5.7782962E-10    1.2173571E+06    1.6729906E-09    1.2173571E+06
   -8.38   300.000    1.434E+01    1.1662969E+06    6.6445347E-10    3.8142115E-10    1.1662969E+06    1.1614262E-09    1.1662969E+06
   -8.37   300.000    1.433E+01    1.1271742E+06    4.9470084E-10    2.2937741E-10    1.1271742E+06    8.1639067E-10    1.1271742E+06
   -8.36   300.000    1.433E+01    1.1068290E+06    3.6229128E-10    1.1891638E-10    1.1068290E+06    6.0737170E-10    1.1068290E+06
   -8.35   300.000    1.432E+01    1.1184237E+06    2.6153808E-10    4.3334014E-11    1.1184237E+06    5.0873172E-10    1.1184237E+06
   -8.34   300.000    1.431E+01    1.1752703E+06    1.9331700E-10   -3.9369469E-12    1.1752703E+06    5.0080785E-10    1.1752703E+06
   -8.33   300.000    1.431E+01    1.2839882E+06    1.6506302E-10   -2.6524245E-11    1.2839882E+06    5.6908425E-10    1.2839882E+06
   -8.32   300.000    1.430E+01    1.4403694E+06    1.8762339E-10   -2.4413747E-11    1.4403694E+06    7.0155373E-10    1.4403694E+06
   -8.31   300.000    1.429E+01    1.6289279E+06    2.7000470E-10    4.7855531E-12    1.6289279E+06    8.8425238E-10    1.6289279E+06
   -8.30   300.000    1.428E+01    1.8250962E+06    4.1374407E-10    6.3748419E-11    1.8250962E+06    1.0968876E-09    1.8250962E+06
   -8.29   300.000    1.427E+01    1.9993682E+06    6.1012493E-10    1.5417451E-10    1.9993682E+06    1.3123783E-09    1.9993682E+06
   -8.28   300.000    1.425E+01    2.1246902E+06    8.4317114E-10    2.7731836E-10    2.1246902E+06    1.5031980E-09    2.1246902E+06
   -8.27   300.000    1.424E+01    2.1873689E+06    1.0978542E-09    4.3550309E-10    2.1873689E+06    1.6520919E-09    2.1873689E+06
   -8.26   300.000    1.423E+01    2.1957724E+06    1.3679869E-09    6.3225176E-10    2.1957724E+06    1.7586155E-09    2.1957724E+06
   -8.25   300.000    1.421E+01    2.1780960E+06    1.6560590E-09    8.6852756E-10    2.1780960E+06    1.8337950E-09    2.1780960E+06
   -8.24   300.000    1.420E+01    2.1678270E+06    1.9621824E-09    1.1349175E-09    2.1678270E+06    1.8851937E-09    2.1678270E+06
   -8.23   300.000    1.418E+01    2.1862058E+06    2.2697090E-09    1.4044747E-09    2.1862058E+06    1.9047358E-09    2.1862058E+06
   -8.22   300.000    1.417E+01    2.2330767E+06    2.5416474E-09    1.6349848E-09    2.2330767E+06    1.8712784E-09    2.2330767E+06
   -8.21   300.000    1.415E+01    2.2905819E+06    2.7363831E-09    1.7861647E-09    2.2905819E+06    1.7680761E-09    2.2905819E+06
   -8.20   300.000    1.414E+01    2.3356530E+06    2.8345751E-09    1.8443129E-09    2.3356530E+06    1.6009398E-09    2.3356530E+06
   -8.19   300.000    1.412E+01    2.3529198E+06    2.8558696E-09    1.8353819E-09    2.3529198E+06    1.4002809E-09    2.3529198E+06
   -8.18   300.000    1.410E+01    2.3415145E+06    2.8515298E-09    1.8142686E-09    2.3415145E+06    1.2053871E-09    2.3415145E+06
   -8.17   300.000    1.409E+01    2.3145544E+06    2.8816381E-09    1.8394141E-09    2.3145544E+06    1.0471507E-09    2.3145544E+06
   -8.16   300.000    1.407E+01    2.2933656E+06    2.9964428E-09    1.9525937E-09    2.2933656E+06    9.4550280E-10    2.2933656E+06
   -8.15   300.000    1.405E+01    2.2989133E+06    3.2306116E-09    2.1738125E-09    2.2989133E+06    9.2115171E-10    2.2989133E+06
   -8.14   300.000    1.404E+01    2.3434071E+06    3.6041720E-09    2.5063856E-09    2.3434071E+06    1.0067604E-09    2.3434071E+06
   -8.13   300.000    1.402E+01    2.4254319E+06    4.1205620E-09    2.9423796E-09    2.4254319E+06    1.2434637E-09    2.4254319E+06
   -8.12   300.000    1.401E+01    2.5301027E+06    4.7578115E-09    3.4616788E-09    2.5301027E+06    1.6609371E-09    2.5301027E+06
   -8.11   300.000    1.399E+01    2.6331339E+06    5.4557059E-09    4.0233086E-09    2.6331339E+06    2.2506303E-09    2.6331339E+06
   -8.10   300.000    1.397E+01    2.7075798E+06    6.1092965E-09    4.5558815E-09    2.7075798E+06    2.9467020E-09    2.7075798E+06
   -8.09   300.000    1.395E+01    2.7329114E+06    6.5846691E-09    4.9622971E-09    2.7329114E+06    3.6306606E-09    2.7329114E+06
   -8.08   300.000    1.393E+01    2.7040709E+06    6.7644565E-09    5.1497845E-09    2.7040709E+06    4.1704952E-09    2.7040709E+06
   -8.07   300.000    1.392E+01    2.6348404E+06    6.6035174E-09    5.0738030E-09    2.6348404E+06    4.4840447E-09    2.6348404E+06
   -8.06   300.000    1.390E+01    2.5512382E+06    6.1537042E-09    4.7627934E-09    2.5512382E+06    4.5899812E-09    2.5512382E+06
   -8.05   300.000    1.388E+01    2.4779162E+06    5.5347796E-09    4.3014832E-09    2.4779162E+06    4.6100531E-09    2.4779162E+06
   -8.04   300.000    1.386E+01    2.4269220E+06    4.8748001E-09    3.7875484E-09    2.4269220E+06    4.7208741E-09    2.4269220E+06
   -8.03   300.000    1.385E+01    2.3964370E+06    4.2640039E-09    3.2953202E-09    2.3964370E+06    5.0864558E-09    2.3964370E+06
   -8.02   300.000    1.383E+01    2.3784339E+06    3.7427329E-09    2.8633084E-09    2.3784339E+06    5.8036382E-09    2.3784339E+06
   -8.01   300.000    1.381E+01    2.3673158E+06    3.3124717E-09    2.4988359E-09    2.3673158E+06    6.8734645E-09    2.3673158E+06
   -8.00   300.000    1.380E+01    2.3627959E+06    2.9519547E-09    2.1882783E-09    2.3627959E+06    8.1981470E-09    2.3627959E+06
   -7.99   300.000    1.378E+01    2.3668648E+06    2.6320196E-09    1.9091550E-09    2.3668648E+06    9.6033574E-09    2.3668648E+06
   -7.98   300.000    1.376E+01    2.3793184E+06    2.3311679E-09    1.6442638E-09    2.3793184E+06    1.0888438E-08    2.3793184E+06
   -7.97   300.000    1.374E+01    2.3960219E+06    2.0494707E-09    1.3940563E-09    2.3960219E+06    1.1897778E-08    2.3960219E+06
   -7.96   300.000    1.372E+01    2.4111866E+06    1.8125501E-09    1.1802045E-09    2.4111866E+06    1.2587064E-08    2.4111866E+06
   -7.95   300.000    1.370E+01    2.4218509E+06    1.6628031E-09    1.0386090E-09    2.4218509E+06    1.3050285E-08    2.4218510E+06
   -7.94   300.000    1.368E+01    2.4308659E+06    1.6455175E-09    1.0083497E-09    2.4308659E+06    1.3490718E-08    2.4308660E+06
   -7.93   300.000    1.366E+01    2.4456951E+06    1.7973336E-09    1.1227751E-09    2.4456951E+06    1.4150014E-08    2.4456953E+06
   -7.92   300.000    1.363E+01    2.4738191E+06    2.1360977E-09    1.4019104E-09    2.4738191E+06    1.5228852E-08    2.4738194E+06
   -7.91   300.000    1.361E+01    2.5179456E+06    2.6499124E-09    1.8433485E-09    2.5179456E+06    1.6825926E-08    2.5179460E+06
   -7.90   300.000    1.359E+01    2.5739244E+06    3.2901030E-09    2.4140000E-09    2.5739244E+06    1.8907361E-08    2.5739250E+06
   -7.89   300.000    1.357E+01    2.6328224E+06    3.9757547E-09    3.0494195E-09    2.6328224E+06    2.1319937E-08    2.6328233E+06
   -7.88   300.000    1.355E+01    2.6864117E+06    4.6115855E-09    3.6653510E-09    2.6864117E+06    2.3860731E-08    2.6864130E+06
   -7.87   300.000    1.353E+01    2.7324024E+06    5.1126200E-09    4.1791633E-09    2.7324024E+06    2.6378912E-08    2.7324044E+06
   -7.86   300.000    1.351E+01    2.7752784E+06    5.4254000E-09    4.5321768E-09    2.7752784E+06    2.8837582E-08    2.7752813E+06
   -7.85   300.000    1.349E+01    2.8223424E+06    5.5373769E-09    4.7022873E-09    2.8223424E+06    3.1273845E-08    2.8223466E+06
   -7.84   300.000    1.346E+01    2.8782501E+06    5.4708515E-09    4.7009001E-09    2.8782501E+06    3.3669026E-08    2.8782563E+06
   -7.83   300.000    1.344E+01    2.9411568E+06    5.2657058E-09    4.5582934E-09    2.9411568E+06    3.5816310E-08    2.9411660E+06
   -7.82   300.000    1.341E+01    3.0018062E+06    4.9652470E-09    4.3122592E-09    3.0018062E+06    3.7303782E-08    3.0018196E+06
   -7.81   300.000    1.339E+01    3.0459506E+06    4.6176817E-09    4.0112976E-09    3.0459506E+06    3.7680661E-08    3.0459704E+06
   -7.80   300.000    1.336E+01    3.0595241E+06    4.2846076E-09    3.7213773E-09    3.0595241E+06    3.6727234E-08    3.0595532E+06
   -7.79   300.000    1.333E+01    3.0343268E+06    4.0335350E-09    3.5130081E-09    3.0343268E+06    3.4617727E-08    3.0343696E+06
   -7.78   300.000    1.331E+01    2.9712950E+06    3.9099170E-09    3.4279136E-09    2.9712950E+06    3.1830119E-08    2.9713580E+06
   -7.77   300.000    1.328E+01    2.8800935E+06    3.9125902E-09    3.4542607E-09    2.8800935E+06    2.8886101E-08    2.8801862E+06
   -7.76   300.000    1.325E+01    2.7759996E+06    3.9970510E-09    3.5356777E-09    2.7759996E+06    2.6138835E-08    2.7761358E+06
   -7.75   300.000    1.322E+01    2.6755994E+06    4.1074527E-09    3.6103499E-09    2.6755994E+06    2.3735414E-08    2.6757997E+06
   -7.74   300.000    1.319E+01    2.5922892E+06    4.2152128E-09    3.6531740E-09    2.5922892E+06    2.1707780E-08    2.5925831E+06
   -7.73   300.000    1.316E+01    2.5322693E+06    4.3341228E-09    3.6903060E-09    2.5322693E+06    2.0071210E-08    2.5327002E+06
   -7.72   300.000    1.312E+01    2.4919849E+06    4.4984416E-09    3.7750170E-09    2.4919849E+06    1.8856960E-08    2.4926154E+06
   -7.71   300.000    1.309E+01    2.4584250E+06    4.7222972E-09    3.9441439E-09    2.4584250E+06    1.8085357E-08    2.4593449E+06
   -7.70   300.000    1.305E+01    2.4133840E+06    4.9745427E-09    4.1878668E-09    2.4133840E+06    1.7726387E-08    2.4147206E+06
   -7.69   300.000    1.301E+01    2.3410537E+06    5.1885736E-09    4.4522200E-09    2.3410537E+06    1.7690198E-08    2.3429845E+06
   -7.68   300.000    1.297E+01    2.2358187E+06    5.2977643E-09    4.6688204E-09    2.2358187E+06    1.7857075E-08    2.2385848E+06
   -7.67   300.000    1.293E+01    2.1058541E+06    5.2697553E-09    4.7897236E-09    2.1058541E+06    1.8123818E-08    2.1097720E+06
   -7.66   300.000    1.289E+01    1.9702122E+06    5.1206137E-09    4.8085016E-09    1.9702122E+06    1.8441777E-08    1.9756771E+06
   -7.65   300.000    1.284E+01    1.8517242E+06    4.9092963E-09    4.7630840E-09    1.8517242E+06    1.8837708E-08    1.8591958E+06
   -7.64   300.000    1.280E+01    1.7704595E+06    4.7200478E-09    4.7233629E-09    1.7704595E+06    1.9406806E-08    1.7804215E+06
   -7.63   300.000    1.275E+01    1.7401234E+06    4.6363590E-09    4.7661983E-09    1.7401234E+06    2.0262995E-08    1.7530108E+06
   -7.62   300.000    1.270E+01    1.7663238E+06    4.7102183E-09    4.9429130E-09    1.7663238E+06    2.1455224E-08    1.7824284E+06
   -7.61   300.000    1.265E+01    1.8454418E+06    4.9360319E-09    5.2504942E-09    1.8454418E+06    2.2890001E-08    1.8648195E+06
   -7.60   300.000    1.260E+01    1.9649060E+06    5.2423508E-09    5.6212947E-09    1.9649060E+06    2.4306717E-08    1.9873258E+06
   -7.59   300.000    1.255E+01    2.1062448E+06    5.5112922E-09    5.9417976E-09    2.1062448E+06    2.5332806E-08    2.1312148E+06
   -7.58   300.000    1.250E+01    2.2505665E+06    5.6231414E-09    6.0971885E-09    2.2505665E+06    2.5610795E-08    2.2774397E+06
   -7.57   300.000    1.245E+01    2.3841809E+06    5.5061579E-09    6.0204673E-09    2.3841809E+06    2.4944397E-08    2.4122949E+06
   -7.56   300.000    1.239E+01    2.5013844E+06    5.1623346E-09    5.7163411E-09    2.5013844E+06    2.3380249E-08    2.5301553E+06
   -7.55   300.000    1.233E+01    2.6026469E+06    4.6535795E-09    5.2454418E-09    2.6026469E+06    2.1170926E-08    2.6315815E+06
   -7.54   300.000    1.228E+01    2.6898170E+06    4.0635050E-09    4.6861878E-09    2.6898170E+06    1.8651743E-08    2.7184918E+06
   -7.53   300.000    1.222E+01    2.7628537E+06    3.4660972E-09    4.1065088E-09    2.7628537E+06    1.6123831E-08    2.7909307E+06
   -7.52   300.000    1.217E+01    2.8209430E+06    2.9173586E-09    3.5593338E-09    2.8209430E+06    1.3806413E-08    2.8482077E+06
   -7.51   300.000    1.211E+01    2.8655368E+06    2.4621587E-09    3.0904938E-09    2.8655368E+06    1.1848951E-08    2.8918768E+06
   -7.50   300.000    1.205E+01    2.9003360E+06    2.1413924E-09    2.7435608E-09    2.9003360E+06    1.0358232E-08    2.9256446E+06
   -7.49   300.000    1.200E+01    2.9272669E+06    1.9916288E-09    2.5571760E-09    2.9272669E+06    9.4103665E-09    2.9513712E+06
   -7.48   300.000    1.194E+01    2.9432446E+06    2.0372790E-09    2.5579393E-09    2.9432446E+06    9.0455780E-09    2.9659499E+06
   -7.47   300.000    1.189E+01    2.9423979E+06    2.2802841E-09    2.7529276E-09    2.9423979E+06    9.2581056E-09    2.9636108E+06
   -7.46   300.000    1.183E+01    2.9222232E+06    2.6956757E-09    3.1263076E-09    2.9222232E+06    9.9933386E-09    2.9420185E+06
   -7.45   300.000    1.177E+01    2.8874015E+06    3.2398936E-09    3.6441539E-09    2.8874015E+06    1.1156780E-08    2.9059517E+06
   -7.44   300.000    1.172E+01    2.8472885E+06    3.8700507E-09    4.2674629E-09    2.8472885E+06    1.2631431E-08    2.8647131E+06
   -7.43   300.000    1.166E+01    2.8091793E+06    4.5626708E-09    4.9672133E-09    2.8091793E+06    1.4297078E-08    2.8254389E+06
   -7.42   300.000    1.160E+01    2.7729592E+06    5.3192238E-09    5.7321592E-09    2.7729592E+06    1.6045826E-08    2.7878718E+06
   -7.41   300.000    1.155E+01    2.7314269E+06    6.1539260E-09    6.5629319E-09    2.7314269E+06    1.7788452E-08    2.7447705E+06
   -7.40   300.000    1.149E+01    2.6759839E+06    7.0691424E-09    7.4533525E-09    2.6759839E+06    1.9446409E-08    2.6875940E+06
   -7.39   300.000    1.143E+01    2.6029064E+06    8.0289421E-09    8.3666163E-09    2.6029064E+06    2.0927997E-08    2.6127161E+06
   -7.38   300.000    1.137E+01    2.5152345E+06    8.9416066E-09    9.2169675E-09    2.5152345E+06    2.2098217E-08    2.5232730E+06
   -7.37   300.000    1.131E+01    2.4199291E+06    9.6619531E-09    9.8693061E-09    2.4199291E+06    2.2770932E-08    2.4263115E+06
   -7.36   300.000    1.125E+01    2.3239797E+06    1.0024905E-08    1.0169720E-08    2.3239797E+06    2.2757390E-08    2.3288922E+06
   -7.35   300.000    1.119E+01    2.2324475E+06    9.9097271E-09    1.0006746E-08    2.2324475E+06    2.1966191E-08    2.2361221E+06
   -7.34   300.000    1.114E+01    2.1485472E+06    9.3043407E-09    9.3729271E-09    2.1485472E+06    2.0488968E-08    2.1512296E+06
   -7.33   300.000    1.108E+01    2.0745024E+06    8.3227129E-09    8.3807973E-09    2.0745024E+06    1.8597834E-08    2.0764225E+06
   -7.32   300.000    1.103E+01    2.0120191E+06    7.1582601E-09    7.2172406E-09    2.0120191E+06    1.6648472E-08    2.0133731E+06
   -7.31   300.000    1.097E+01    1.9618014E+06    6.0062152E-09    6.0686702E-09    1.9618014E+06    1.4954723E-08    1.9627456E+06
   -7.30   300.000    1.092E+01    1.9223811E+06    5.0035423E-09    5.0640759E-09    1.9223811E+06    1.3705818E-08    1.9230343E+06
   -7.29   300.000    1.087E+01    1.8892958E+06    4.2097409E-09    4.2581121E-09    1.8892958E+06    1.2951206E-08    1.8897451E+06
   -7.28   300.000    1.082E+01    1.8557435E+06    3.6219877E-09    3.6473866E-09    1.8557435E+06    1.2635995E-08    1.8560513E+06
   -7.27   300.000    1.077E+01    1.8148074E+06    3.2057076E-09    3.2010571E-09    1.8148074E+06    1.2653884E-08    1.8150177E+06
   -7.26   300.000    1.072E+01    1.7618089E+06    2.9240640E-09    2.8891174E-09    1.7618089E+06    1.2886985E-08    1.7619524E+06
   -7.25   300.000    1.068E+01    1.6951771E+06    2.7594635E-09    2.7016308E-09    1.6951771E+06    1.3220898E-08    1.6952748E+06
   -7.24   300.000    1.064E+01    1.6158184E+06    2.7274384E-09    2.6601642E-09    1.6158184E+06    1.3548806E-08    1.6158849E+06
   -7.23   300.000    1.059E+01    1.5262706E+06    2.8794954E-09    2.8191234E-09    1.5262706E+06    1.3786059E-08    1.5263158E+06
   -7.22   300.000    1.056E+01    1.4304275E+06    3.2858108E-09    3.2482350E-09    1.4304275E+06    1.3899671E-08    1.4304582E+06
   -7.21   300.000    1.052E+01    1.3333399E+06    3.9993130E-09    3.9972058E-09    1.3333399E+06    1.3935171E-08    1.3333608E+06
   -7.20   300.000    1.049E+01    1.2403024E+06    5.0215791E-09    5.0622644E-09    1.2403024E+06    1.4016759E-08    1.2403166E+06
   -7.19   300.000    1.045E+01    1.1553534E+06    6.2902888E-09    6.3740557E-09    1.1553534E+06    1.4311379E-08    1.1553631E+06
   -7.18   300.000    1.042E+01    1.0801334E+06    7.6890521E-09    7.8082044E-09    1.0801334E+06    1.4970783E-08    1.0801400E+06
   -7.17   300.000    1.039E+01    1.0138226E+06    9.0707263E-09    9.2104338E-09    1.0138226E+06    1.6074881E-08    1.0138271E+06
   -7.16   300.000    1.036E+01    9.5401885E+05    1.0287380E-08    1.0429074E-08    9.5401885E+05    1.7587359E-08    9.5402187E+05
   -7.15   300.000    1.034E+01    8.9778562E+05    1.1214476E-08    1.1340841E-08    8.9778562E+05    1.9321481E-08    8.9778768E+05
   -7.14   300.000    1.031E+01    8.4225958E+05    1.1753694E-08    1.1852951E-08    8.4225958E+05    2.0927797E-08    8.4226098E+05
   -7.13   300.000    1.029E+01    7.8495990E+05    1.1824139E-08    1.1891792E-08    7.8495990E+05    2.1948490E-08    7.8496086E+05
   -7.12   300.000    1.026E+01    7.2430227E+05    1.1377121E-08    1.1415003E-08    7.2430227E+05    2.1972908E-08    7.2430293E+05
   -7.11   300.000    1.024E+01    6.6022858E+05    1.0440770E-08    1.0454537E-08    6.6022858E+05    2.0834595E-08    6.6022905E+05
   -7.10   300.000    1.022E+01    5.9432683E+05    9.1466748E-09    9.1431839E-09    5.9432683E+05    1.8705013E-08    5.9432717E+05
   -7.09   300.000    1.020E+01    5.2927699E+05    7.6970454E-09    7.6825634E-09    5.2927699E+05    1.6002512E-08    5.2927725E+05
   -7.08   300.000    1.018E+01    4.6805797E+05    6.2931986E-09    6.2726169E-09    4.6805797E+05    1.3195939E-08    4.6805820E+05
   -7.07   300.000    1.016E+01    4.1318783E+05    5.0775295E-09    5.0542782E-09    4.1318783E+05    1.0645558E-08    4.1318806E+05
   -7.06   300.000    1.015E+01    3.6604677E+05    4.1149033E-09    4.0912098E-09    3.6604677E+05    8.5464340E-09    3.6604703E+05
   -7.05   300.000    1.013E+01    3.2657092E+05    3.4050827E-09    3.3823738E-09    3.2657092E+05    6.9492068E-09    3.2657125E+05
   -7.04   300.000    1.011E+01    2.9360028E+05    2.9073448E-09    2.8867019E-09    2.9360028E+05    5.8096348E-09    2.9360074E+05
   -7.03   300.000    1.010E+01    2.6564688E+05    2.5636859E-09    2.5463023E-09    2.6564688E+05    5.0361889E-09    2.6564753E+05
   -7.02   300.000    1.008E+01    2.4154428E+05    2.3150633E-09    2.3026486E-09    2.4154428E+05    4.5249950E-09    2.4154523E+05
   -7.01   300.000    1.006E+01    2.2072873E+05    2.1115409E-09    2.1065805E-09    2.2072873E+05    4.1830035E-09    2.2073011E+05
   -7.00   300.000    1.005E+01    2.0331565E+05    1.9198130E-09    1.9256418E-09    2.0331565E+05    3.9445122E-09    2.0331766E+05
   -6.99   300.000    1.003E+01    1.9015912E+05    1.7287558E-09    1.7495262E-09    1.9015912E+05    3.7826176E-09    1.9016206E+05
   -6.98   300.000    1.001E+01    1.8280323E+05    1.5490139E-09    1.5896532E-09    1.8280323E+05    3.7104941E-09    1.8280752E+05
   -6.97   300.000    9.991E+00    1.8315087E+05    1.4039153E-09    1.4700347E-09    1.8315087E+05    3.7689597E-09    1.8315712E+05
   -6.96   300.000    9.968E+00    1.9291226E+05    1.3161640E-09    1.4137593E-09    1.9291226E+05    4.0067573E-09    1.9292130E+05
   -6.95   300.000    9.942E+00    2.1305844E+05    1.2983331E-09    1.4331516E-09    2.1305844E+05    4.4649616E-09    2.1307141E+05
   -6.94   300.000    9.912E+00    2.4343734E+05    1.3511840E-09    1.5278511E-09    2.4343734E+05    5.1724743E-09    2.4345576E+05
   -6.93   300.000    9.877E+00    2.8264429E+05    1.4680884E-09    1.6893802E-09    2.8264429E+05    6.1535555E-09    2.8267003E+05
   -6.92   300.000    9.837E+00    3.2823393E+05    1.6417663E-09    1.9085081E-09    3.2823393E+05    7.4446012E-09    3.2826915E+05
   -6.91   300.000    9.792E+00    3.7724043E+05    1.8707128E-09    2.1823730E-09    3.7724043E+05    9.1136721E-09    3.7728725E+05
   -6.90   300.000    9.741E+00    4.2675116E+05    2.1639568E-09    2.5192886E-09    4.2675116E+05    1.1273675E-08    4.2681119E+05
   -6.89   300.000    9.684E+00    4.7424854E+05    2.5429949E-09    2.9399477E-09    4.7424854E+05    1.4083358E-08    4.7432221E+05
   -6.88   300.000    9.620E+00    5.1769962E+05    3.0400099E-09    3.4750367E-09    5.1769962E+05    1.7736385E-08    5.1778573E+05
   -6.87   300.000    9.549E+00    5.5559090E+05    3.6917656E-09    4.1595632E-09    5.5559090E+05    2.2435306E-08    5.5568674E+05
   -6.86   300.000    9.471E+00    5.8697945E+05    4.5280217E-09    5.0222894E-09    5.8697945E+05    2.8333646E-08    5.8708160E+05
   -6.85   300.000    9.383E+00    6.1143791E+05    5.5538768E-09    6.0683530E-09    6.1143791E+05    3.5428214E-08    6.1154323E+05
   -6.84   300.000    9.287E+00    6.2888639E+05    6.7297655E-09    7.2584249E-09    6.2888639E+05    4.3416860E-08    6.2899258E+05
   -6.83   300.000    9.179E+00    6.3950950E+05    7.9593947E-09    8.4958208E-09    6.3950950E+05    5.1596514E-08    6.3961503E+05
   -6.82   300.000    9.062E+00    6.4383962E+05    9.0991193E-09    9.6361424E-09    6.4383962E+05    5.8915156E-08    6.4394350E+05
   -6.81   300.000    8.934E+00    6.4281758E+05    9.9945586E-09    1.0524807E-08    6.4281758E+05    6.4239068E-08    6.4291953E+05
   -6.80   300.000    8.797E+00    6.3768838E+05    1.0529690E-08    1.1046436E-08    6.3768838E+05    6.6740069E-08    6.3778944E+05
   -6.79   300.000    8.654E+00    6.2989611E+05    1.0658143E-08    1.1155529E-08    6.2989611E+05    6.6182408E-08    6.2999901E+05
   -6.78   300.000    8.507E+00    6.2120723E+05    1.0400415E-08    1.0873197E-08    6.2120723E+05    6.2957508E-08    6.2131621E+05
   -6.77   300.000    8.360E+00    6.1403601E+05    9.8215638E-09    1.0265289E-08    6.1403601E+05    5.7901391E-08    6.1415599E+05
   -6.76   300.000    8.215E+00    6.1169007E+05    9.0123177E-09    9.4243778E-09    6.1169007E+05    5.2025278E-08    6.1182529E+05
   -6.75   300.000    8.074E+00    6.1813748E+05    8.0805630E-09    8.4613855E-09    6.1813748E+05    4.6270974E-08    6.1828989E+05
   -6.74   300.000    7.938E+00    6.3705441E+05    7.1489190E-09    7.5021134E-09    6.3705441E+05    4.1357708E-08    6.3722205E+05
   -6.73   300.000    7.804E+00    6.7045811E+05    6.3534833E-09    6.6845257E-09    6.7045811E+05    3.7731232E-08    6.7063448E+05
   -6.72   300.000    7.673E+00    7.1770894E+05    5.8369410E-09    6.1512179E-09    7.1770894E+05    3.5574351E-08    7.1788405E+05
   -6.71   300.000    7.540E+00    7.7546807E+05    5.7265761E-09    6.0281486E-09    7.7546807E+05    3.4833508E-08    7.7563109E+05
   -6.70   300.000    7.405E+00    8.3852851E+05    6.0929406E-09    6.3847478E-09    8.3852851E+05    3.5245763E-08    8.3867092E+05
   -6.69   300.000    7.265E+00    9.0109740E+05    6.8994576E-09    7.1843704E-09    9.0109740E+05    3.6369140E-08    9.0121481E+05
   -6.68   300.000    7.122E+00    9.5824366E+05    7.9717603E-09    8.2530650E-09    9.5824366E+05    3.7625814E-08    9.5833581E+05
   -6.67   300.000    6.974E+00    1.0071927E+06    9.0251884E-09    9.3056225E-09    1.0071927E+06    3.8386447E-08    1.0072622E+06
   -6.66   300.000    6.825E+00    1.0478799E+06    9.7663485E-09    1.0046329E-08    1.0478799E+06    3.8128058E-08    1.0479308E+06
   -6.65   300.000    6.675E+00    1.0823908E+06    1.0025491E-08    1.0302034E-08    1.0823908E+06    3.6629614E-08    1.0824273E+06
   -6.64   300.000    6.528E+00    1.1136254E+06    9.8318711E-09    1.0099051E-08    1.1136254E+06    3.4077323E-08    1.1136511E+06
   -6.63   300.000    6.385E+00    1.1438821E+06    9.3785393E-09    9.6291432E-09    1.1438821E+06    3.0981431E-08    1.1439000E+06
   -6.62   300.000    6.249E+00    1.1737922E+06    8.9128587E-09    9.1402265E-09    1.1737922E+06    2.7959184E-08    1.1738046E+06
   -6.61   300.000    6.120E+00    1.2017355E+06    8.6369572E-09    8.8360910E-09    1.2017355E+06    2.5530264E-08    1.2017440E+06
   -6.60   300.000    5.997E+00    1.2239817E+06    8.6698521E-09    8.8375366E-09    1.2239817E+06    2.4017988E-08    1.2239875E+06
   -6.59   300.000    5.882E+00    1.2359679E+06    9.0647133E-09    9.1992319E-09    1.2359679E+06    2.3553484E-08    1.2359719E+06
   -6.58   300.000    5.772E+00    1.2346599E+06    9.8449612E-09    9.9462044E-09    1.2346599E+06    2.4131432E-08    1.2346626E+06
   -6.57   300.000    5.668E+00    1.2208242E+06    1.1025359E-08    1.1095571E-08    1.2208242E+06    2.5663941E-08    1.2208260E+06
   -6.56   300.000    5.567E+00    1.1994310E+06    1.2601110E-08    1.2645850E-08    1.1994310E+06    2.7997581E-08    1.1994323E+06
   -6.55   300.000    5.469E+00    1.1774777E+06    1.4506449E-08    1.4534964E-08    1.1774777E+06    3.0882756E-08    1.1774785E+06
   -6.54   300.000    5.374E+00    1.1606461E+06    1.6560487E-08    1.6584840E-08    1.1606461E+06    3.3912469E-08    1.1606467E+06
   -6.53   300.000    5.280E+00    1.1512711E+06    1.8436352E-08    1.8469501E-08    1.1512711E+06    3.6487046E-08    1.1512715E+06
   -6.52   300.000    5.188E+00    1.1489975E+06    1.9704764E-08    1.9758709E-08    1.1489975E+06    3.7893345E-08    1.1489978E+06
   -6.51   300.000    5.100E+00    1.1532447E+06    1.9980262E-08    2.0065153E-08    1.1532447E+06    3.7543558E-08    1.1532449E+06
   -6.50   300.000    5.015E+00    1.1651691E+06    1.9110890E-08    1.9234808E-08    1.1651691E+06    3.5268758E-08    1.1651693E+06
   -6.49   300.000    4.937E+00    1.1875529E+06    1.7272458E-08    1.7441103E-08    1.1875529E+06    3.1441815E-08    1.1875530E+06
   -6.48   300.000    4.864E+00    1.2230145E+06    1.4882300E-08    1.5098567E-08    1.2230145E+06    2.6807793E-08    1.2230146E+06
   -6.47   300.000    4.797E+00    1.2718497E+06    1.2402697E-08    1.2666798E-08    1.2718497E+06    2.2151248E-08    1.2718498E+06
   -6.46   300.000    4.737E+00    1.3303012E+06    1.0176693E-08    1.0486799E-08    1.3303012E+06    1.8032453E-08    1.3303012E+06
   -6.45   300.000    4.682E+00    1.3898750E+06    8.3689791E-09    8.7214747E-09    1.3898750E+06    1.4702602E-08    1.3898750E+06
   -6.44   300.000    4.631E+00    1.4387974E+06    6.9906633E-09    7.3795380E-09    1.4387974E+06    1.2157646E-08    1.4387974E+06
   -6.43   300.000    4.586E+00    1.4662038E+06    5.9593426E-09    6.3756160E-09    1.4662038E+06    1.0246638E-08    1.4662038E+06
   -6.42   300.000    4.544E+00    1.4675304E+06    5.1631978E-09    5.5957931E-09    1.4675304E+06    8.7775186E-09    1.4675304E+06
   -6.41   300.000    4.507E+00    1.4476955E+06    4.5117135E-09    4.9499901E-09    1.4476955E+06    7.5921067E-09    1.4476955E+06
   -6.40   300.000    4.473E+00    1.4195393E+06    3.9583816E-09    4.3947987E-09    1.4195393E+06    6.5970791E-09    1.4195393E+06
   -6.39   300.000    4.443E+00    1.3984432E+06    3.4912262E-09    3.9222082E-09    1.3984432E+06    5.7543417E-09    1.3984432E+06
   -6.38   300.000    4.416E+00    1.3965238E+06    3.1063199E-09    3.5306861E-09    1.3965238E+06    5.0520325E-09    1.3965238E+06
   -6.37   300.000    4.390E+00    1.4190329E+06    2.7872104E-09    3.2031193E-09    1.4190329E+06    4.4797258E-09    1.4190329E+06
   -6.36   300.000    4.367E+00    1.4636521E+06    2.5021109E-09    2.9043199E-09    1.4636521E+06    4.0184540E-09    1.4636521E+06
   -6.35   300.000    4.344E+00    1.5224830E+06    2.2148581E-09    2.5941872E-09    1.5224830E+06    3.6435008E-09    1.5224830E+06
   -6.34   300.000    4.322E+00    1.5860123E+06    1.8986142E-09    2.2445859E-09    1.5860123E+06    3.3323518E-09    1.5860123E+06
   -6.33   300.000    4.301E+00    1.6473568E+06    1.5448654E-09    1.8503430E-09    1.6473568E+06    3.0702469E-09    1.6473568E+06
   -6.32   300.000    4.280E+00    1.7045564E+06    1.1661425E-09    1.4308251E-09    1.7045564E+06    2.8493200E-09    1.7045564E+06
   -6.31   300.000    4.260E+00    1.7595490E+06    7.9185718E-10    1.0220769E-09    1.7595490E+06    2.6622534E-09    1.7595490E+06
   -6.30   300.000    4.240E+00    1.8147205E+06    4.5697981E-10    6.6227687E-10    1.8147205E+06    2.4961329E-09    1.8147205E+06
   -6.29   300.000    4.221E+00    1.8697164E+06    1.8798234E-10    3.7714711E-10    1.8697164E+06    2.3330130E-09    1.8697164E+06
   -6.28   300.000    4.203E+00    1.9204607E+06   -5.9843495E-12    1.7278620E-10    1.9204607E+06    2.1578258E-09    1.9204607E+06
   -6.27   300.000    4.185E+00    1.9601641E+06   -1.3210267E-10    3.8997396E-11    1.9601641E+06    1.9671961E-09    1.9601641E+06
   -6.26   300.000    4.167E+00    1.9814367E+06   -2.0567833E-10   -4.0354625E-11    1.9814367E+06    1.7720794E-09    1.9814367E+06
   -6.25   300.000    4.151E+00    1.9790149E+06   -2.4117301E-10   -7.7284679E-11    1.9790149E+06    1.5924745E-09    1.9790149E+06
   -6.24   300.000    4.134E+00    1.9521216E+06   -2.4707331E-10   -7.5466537E-11    1.9521216E+06    1.4480617E-09    1.9521216E+06
   -6.23   300.000    4.119E+00    1.9055420E+06   -2.2535209E-10   -3.2040910E-11    1.9055420E+06    1.3509418E-09    1.9055420E+06
   -6.22   300.000    4.104E+00    1.8499147E+06   -1.7400179E-10    5.8160388E-11    1.8499147E+06    1.3048014E-09    1.8499147E+06
   -6.21   300.000    4.089E+00    1.8014157E+06   -9.0292874E-11    1.9940177E-10    1.8014157E+06    1.3095954E-09    1.8014157E+06
   -6.20   300.000    4.075E+00    1.7790373E+06    2.7229348E-11    3.9364828E-10    1.7790373E+06    1.3664844E-09    1.7790373E+06
   -6.19   300.000    4.061E+00    1.7985845E+06    1.7822860E-10    6.3946053E-10    1.7985845E+06    1.4786246E-09    1.7985845E+06
   -6.18   300.000    4.047E+00    1.8660902E+06    3.6014865E-10    9.2941731E-10    1.8660902E+06    1.6475839E-09    1.8660902E+06
   -6.17   300.000    4.032E+00    1.9746033E+06    5.6677239E-10    1.2462985E-09    1.9746033E+06    1.8678169E-09    1.9746033E+06
   -6.16   300.000    4.016E+00    2.1061515E+06    7.8644398E-10    1.5611624E-09    2.1061515E+06    2.1223878E-09    2.1061515E+06
   -6.15   300.000    3.999E+00    2.2378283E+06    1.0026005E-09    1.8381722E-09    2.2378283E+06    2.3838549E-09    2.2378283E+06
   -6.14   300.000    3.982E+00    2.3490501E+06    1.1997757E-09    2.0484889E-09    2.3490501E+06    2.6230119E-09    2.3490501E+06
   -6.13   300.000    3.964E+00    2.4270427E+06    1.3743308E-09    2.1873600E-09    2.4270427E+06    2.8226558E-09    2.4270427E+06
   -6.12   300.000    3.945E+00    2.4696801E+06    1.5421840E-09    2.2816040E-09    2.4696801E+06    2.9875598E-09    2.4696801E+06
   -6.11   300.000    3.925E+00    2.4860940E+06    1.7349384E-09    2.3795707E-09    2.4860940E+06    3.1421864E-09    2.4860940E+06
   -6.10   300.000    3.905E+00    2.4940412E+06    1.9845183E-09    2.5289435E-09    2.4940412E+06    3.3148766E-09    2.4940412E+06
   -6.09   300.000    3.883E+00    2.5125149E+06    2.3048903E-09    2.7548550E-09    2.5125149E+06    3.5160038E-09    2.5125149E+06
   -6.08   300.000    3.861E+00    2.5520455E+06    2.6806073E-09    3.0481727E-09    2.5520455E+06    3.7234625E-09    2.5520455E+06
   -6.07   300.000    3.838E+00    2.6093658E+06    3.0686131E-09    3.3687542E-09    2.6093658E+06    3.8880923E-09    2.6093658E+06
   -6.06   300.000    3.814E+00    2.6710945E+06    3.4138903E-09    3.6627745E-09    2.6710945E+06    3.9604517E-09    2.6710945E+06
   -6.05   300.000    3.790E+00    2.7237337E+06    3.6712004E-09    3.8855224E-09    2.7237337E+06    3.9222873E-09    2.7237337E+06
   -6.04   300.000    3.765E+00    2.7619048E+06    3.8198650E-09    4.0165874E-09    2.7619048E+06    3.7976983E-09    2.7619048E+06
   -6.03   300.000    3.740E+00    2.7883540E+06    3.8630103E-09    4.0592434E-09    2.7883540E+06    3.6345935E-09    2.7883540E+06
   -6.02   300.000    3.716E+00    2.8061952E+06    3.8143111E-09    4.0269457E-09    2.8061952E+06    3.4737868E-09    2.8061952E+06
   -6.01   300.000    3.693E+00    2.8104273E+06    3.6844639E-09    3.9286696E-09    2.8104273E+06    3.3323455E-09    2.8104273E+06
   -6.00   300.000    3.670E+00    2.7867043E+06    3.4790520E-09    3.7651687E-09    2.7867043E+06    3.2119572E-09    2.7867043E+06
   -5.99   300.000    3.648E+00    2.7196531E+06    3.2082482E-09    3.5383020E-09    2.7196531E+06    3.1202000E-09    2.7196531E+06
   -5.98   300.000    3.626E+00    2.6051607E+06    2.8965240E-09    3.2630631E-09    2.6051607E+06    3.0835139E-09    2.6051607E+06
   -5.97   300.000    3.606E+00    2.4574750E+06    2.5809278E-09    2.9699811E-09    2.4574750E+06    3.1423259E-09    2.4574750E+06
   -5.96   300.000    3.586E+00    2.3058041E+06    2.2986742E-09    2.6956204E-09    2.3058041E+06    3.3370338E-09    2.3058041E+06
   -5.95   300.000    3.567E+00    2.1832275E+06    2.0739198E-09    2.4690987E-09    2.1832275E+06    3.6978349E-09    2.1832275E+06
   -5.94   300.000    3.548E+00    2.1159257E+06    1.9120688E-09    2.3040123E-09    2.1159257E+06    4.2417119E-09    2.1159257E+06
   -5.93   300.000    3.529E+00    2.1183097E+06    1.8029330E-09    2.1992541E-09    2.1183097E+06    4.9720460E-09    2.1183097E+06
   -5.92   300.000    3.509E+00    2.1932097E+06    1.7287218E-09    2.1454369E-09    2.1932097E+06    5.8761838E-09    2.1932097E+06
   -5.91   300.000    3.488E+00    2.3333094E+06    1.6720798E-09    2.1314721E-09    2.3333094E+06    6.9186802E-09    2.3333094E+06
   -5.90   300.000    3.466E+00    2.5222635E+06    1.6223131E-09    2.1488757E-09    2.5222635E+06    8.0327183E-09    2.5222635E+06
   -5.89   300.000    3.443E+00    2.7368805E+06    1.5816417E-09    2.1959590E-09    2.7368805E+06    9.1214685E-09    2.7368805E+06
   -5.88   300.000    3.419E+00    2.9514660E+06    1.5737288E-09    2.2853130E-09    2.9514660E+06    1.0083521E-08    2.9514660E+06
   -5.87   300.000    3.395E+00    3.1428725E+06    1.6513005E-09    2.4528594E-09    3.1428725E+06    1.0858531E-08    3.1428725E+06
   -5.86   300.000    3.370E+00    3.2941495E+06    1.8934265E-09    2.7595320E-09    3.2941495E+06    1.1466433E-08    3.2941495E+06
   -5.85   300.000    3.345E+00    3.3967856E+06    2.3862025E-09    3.2778147E-09    3.3967856E+06    1.2016116E-08    3.3967856E+06
   -5.84   300.000    3.319E+00    3.4518889E+06    3.1941228E-09    4.0677170E-09    3.4518889E+06    1.2681148E-08    3.4518889E+06
   -5.83   300.000    3.294E+00    3.4681523E+06    4.3393734E-09    5.1572700E-09    3.4681523E+06    1.3650985E-08    3.4681523E+06
   -5.82   300.000    3.268E+00    3.4553462E+06    5.7992816E-09    6.5371252E-09    3.4553462E+06    1.5067490E-08    3.4553462E+06
   -5.81   300.000    3.242E+00    3.4174967E+06    7.5137879E-09    8.1623430E-09    3.4174967E+06    1.6963030E-08    3.4174967E+06
   -5.80   300.000    3.216E+00    3.3512367E+06    9.3853376E-09    9.9465589E-09    3.3512367E+06    1.9219341E-08    3.3512367E+06
   -5.79   300.000    3.191E+00    3.2495639E+06    1.1265090E-08    1.1745225E-08    3.2495639E+06    2.1561543E-08    3.2495639E+06
   -5.78   300.000    3.166E+00    3.1075077E+06    1.2942032E-08    1.3345742E-08    3.1075077E+06    2.3599368E-08    3.1075077E+06
   -5.77   300.000    3.142E+00    2.9273330E+06    1.4163762E-08    1.4492283E-08    2.9273330E+06    2.4922657E-08    2.9273330E+06
   -5.76   300.000    3.119E+00    2.7219224E+06    1.4704720E-08    1.4958292E-08    2.7219224E+06    2.5236482E-08    2.7219224E+06
   -5.75   300.000    3.097E+00    2.5145016E+06    1.4460896E-08    1.4642849E-08    2.5145016E+06    2.4487420E-08    2.5145016E+06
   -5.74   300.000    3.076E+00    2.3340133E+06    1.3512567E-08    1.3631808E-08    2.3340133E+06    2.2910903E-08    2.3340133E+06
   -5.73   300.000    3.056E+00    2.2077175E+06    1.2102047E-08    1.2172353E-08    2.2077175E+06    2.0955128E-08    2.2077175E+06
   -5.72   300.000    3.037E+00    2.1536803E+06    1.0534641E-08    1.0571362E-08    2.1536803E+06    1.9113627E-08    2.1536803E+06
   -5.71   300.000    3.018E+00    2.1757009E+06    9.0668397E-09    9.0827043E-09    2.1757009E+06    1.7757150E-08    2.1757009E+06
   -5.70   300.000    2.999E+00    2.2623380E+06    7.8378419E-09    7.8396539E-09    2.2623380E+06    1.7036408E-08    2.2623380E+06
   -5.69   300.000    2.979E+00    2.3899761E+06    6.8571366E-09    6.8448268E-09    2.3899761E+06    1.6870358E-08    2.3899761E+06
   -5.68   300.000    2.958E+00    2.5283913E+06    6.0367745E-09    6.0056827E-09    2.5283913E+06    1.7006721E-08    2.5283913E+06
   -5.67   300.000    2.936E+00    2.6473184E+06    5.2533976E-09    5.1993833E-09    2.6473184E+06    1.7138105E-08    2.6473184E+06
   -5.66   300.000    2.913E+00    2.7231611E+06    4.4173621E-09    4.3426741E-09    2.7231611E+06    1.7037094E-08    2.7231611E+06
   -5.65   300.000    2.888E+00    2.7444300E+06    3.5190766E-09    3.4359491E-09    2.7444300E+06    1.6646198E-08    2.7444300E+06
   -5.64   300.000    2.863E+00    2.7137091E+06    2.6361033E-09    2.5660500E-09    2.7137091E+06    1.6076327E-08    2.7137091E+06
   -5.63   300.000    2.836E+00    2.6450605E+06    1.9085516E-09    1.8780288E-09    2.6450605E+06    1.5530164E-08    2.6450605E+06
   -5.62   300.000    2.808E+00    2.5582380E+06    1.4966927E-09    1.5320450E-09    2.5582380E+06    1.5209003E-08    2.5582380E+06
   -5.61   300.000    2.778E+00    2.4727958E+06    1.5275693E-09    1.6521354E-09    2.4727958E+06    1.5248850E-08    2.4727958E+06
   -5.60   300.000    2.745E+00    2.4046978E+06    2.0429440E-09    2.2773393E-09    2.4046978E+06    1.5693767E-08    2.4046978E+06
   -5.59   300.000    2.709E+00    2.3656467E+06    2.9760291E-09    3.3403676E-09    2.3656467E+06    1.6493982E-08    2.3656467E+06
   -5.58   300.000    2.670E+00    2.3634475E+06    4.1777924E-09    4.6930038E-09    2.3634475E+06    1.7525253E-08    2.3634475E+06
   -5.57   300.000    2.627E+00    2.4016825E+06    5.4799324E-09    6.1652786E-09    2.4016825E+06    1.8636366E-08    2.4016825E+06
   -5.56   300.000    2.578E+00    2.4778296E+06    6.7541850E-09    7.6201786E-09    2.4778296E+06    1.9710836E-08    2.4778296E+06
   -5.55   300.000    2.524E+00    2.5804040E+06    7.9318280E-09    8.9712236E-09    2.5804040E+06    2.0697782E-08    2.5804041E+06
   -5.54   300.000    2.464E+00    2.6878554E+06    8.9767367E-09    1.0158913E-08    2.6878554E+06    2.1581859E-08    2.6878554E+06
   -5.53   300.000    2.399E+00    2.7728703E+06    9.8400603E-09    1.1113561E-08    2.7728703E+06    2.2324424E-08    2.7728704E+06
   -5.52   300.000    2.328E+00    2.8128946E+06    1.0441359E-08    1.1745071E-08    2.8128946E+06    2.2844534E-08    2.8128947E+06
   -5.51   300.000    2.252E+00    2.8015398E+06    1.0699536E-08    1.1977579E-08    2.8015398E+06    2.3068143E-08    2.8015399E+06
   -5.50   300.000    2.173E+00    2.7518312E+06    1.0587724E-08    1.1800520E-08    2.7518312E+06    2.3000032E-08    2.7518313E+06
   -5.49   300.000    2.093E+00    2.6874587E+06    1.0159297E-08    1.1285687E-08    2.6874587E+06    2.2748170E-08    2.6874589E+06
   -5.48   300.000    2.012E+00    2.6285739E+06    9.5218161E-09    1.0552822E-08    2.6285739E+06    2.2477309E-08    2.6285742E+06
   -5.47   300.000    1.932E+00    2.5825680E+06    8.7878421E-09    9.7174374E-09    2.5825680E+06    2.2331696E-08    2.5825684E+06
   -5.46   300.000    1.855E+00    2.5445755E+06    8.0434527E-09    8.8624596E-09    2.5445755E+06    2.2381661E-08    2.5445761E+06
   -5.45   300.000    1.780E+00    2.5048340E+06    7.3418124E-09    8.0382661E-09    2.5048340E+06    2.2611440E-08    2.5048349E+06
   -5.44   300.000    1.708E+00    2.4565396E+06    6.7031682E-09    7.2683901E-09    2.4565396E+06    2.2929849E-08    2.4565409E+06
   -5.43   300.000    1.639E+00    2.3991584E+06    6.1147208E-09    6.5509084E-09    2.3991584E+06    2.3190787E-08    2.3991603E+06
   -5.42   300.000    1.573E+00    2.3367080E+06    5.5438334E-09    5.8681616E-09    2.3367080E+06    2.3229559E-08    2.3367108E+06
   -5.41   300.000    1.510E+00    2.2743664E+06    4.9685673E-09    5.2113080E-09    2.2743664E+06    2.2911232E-08    2.2743705E+06
   -5.40   300.000    1.449E+00    2.2164455E+06    4.4031017E-09    4.6011056E-09    2.2164455E+06    2.2166966E-08    2.2164516E+06
   -5.39   300.000    1.390E+00    2.1660065E+06    3.8941282E-09    4.0831582E-09    2.1660065E+06    2.1006387E-08    2.1660154E+06
   -5.38   300.000    1.333E+00    2.1247644E+06    3.4928221E-09    3.7016919E-09    2.1247644E+06    1.9516054E-08    2.1247775E+06
   -5.37   300.000    1.278E+00    2.0922028E+06    3.2272706E-09    3.4749640E-09    2.0922028E+06    1.7843856E-08    2.0922221E+06
   -5.36   300.000    1.223E+00    2.0645526E+06    3.0924656E-09    3.3880832E-09    2.0645526E+06    1.6159769E-08    2.0645808E+06
   -5.35   300.000    1.170E+00    2.0357967E+06    3.0575031E-09    3.4023560E-09    2.0357967E+06    1.4608268E-08    2.0358380E+06
   -5.34   300.000    1.117E+00    2.0012159E+06    3.0808422E-09    3.4717966E-09    2.0012159E+06    1.3283568E-08    2.0012763E+06
   -5.33   300.000    1.064E+00    1.9604696E+06    3.1247397E-09    3.5577051E-09    1.9604696E+06    1.2237051E-08    1.9605574E+06
   -5.32   300.000    1.011E+00    1.9171893E+06    3.1640666E-09    3.6364014E-09    1.9171893E+06    1.1500636E-08    1.9173163E+06
   -5.31   300.000    9.588E-01    1.8758890E+06    3.1886415E-09    3.6995363E-09    1.8758890E+06    1.1105336E-08    1.8760713E+06
   -5.30   300.000    9.072E-01    1.8391623E+06    3.1995955E-09    3.7484206E-09    1.8391623E+06    1.1080857E-08    1.8394212E+06
   -5.29   300.000    8.568E-01    1.8067068E+06    3.2009779E-09    3.7848484E-09    1.8067068E+06    1.1431920E-08    1.8070696E+06
   -5.28   300.000    8.080E-01    1.7757989E+06    3.1903541E-09    3.8027766E-09    1.7757989E+06    1.2100244E-08    1.7762983E+06
   -5.27   300.000    7.612E-01    1.7423043E+06    3.1541786E-09    3.7858418E-09    1.7423043E+06    1.2932633E-08    1.7429772E+06
   -5.26   300.000    7.164E-01    1.7015488E+06    3.0716251E-09    3.7127026E-09    1.7015488E+06    1.3680951E-08    1.7024331E+06
   -5.25   300.000    6.740E-01    1.6489861E+06    2.9256174E-09    3.5678642E-09    1.6489861E+06    1.4056188E-08    1.6501165E+06
   -5.24   300.000    6.339E-01    1.5814421E+06    2.7159573E-09    3.3534917E-09    1.5814421E+06    1.3834209E-08    1.5828467E+06
   -5.23   300.000    5.964E-01    1.4994876E+06    2.4672999E-09    3.0966178E-09    1.4994876E+06    1.2962430E-08    1.5011872E+06
   -5.22   300.000    5.614E-01    1.4094466E+06    2.2251210E-09    2.8454690E-09    1.4094466E+06    1.1590066E-08    1.4114594E+06
   -5.21   300.000    5.289E-01    1.3222886E+06    2.0395071E-09    2.6534133E-09    1.3222886E+06    9.9930519E-09    1.3246390E+06
   -5.20   300.000    4.985E-01    1.2488205E+06    1.9456485E-09    2.5580673E-09    1.2488205E+06    8.4497549E-09    1.2515439E+06
   -5.19   300.000    4.699E-01    1.1941375E+06    1.9511995E-09    2.5664269E-09    1.1941375E+06    7.1493331E-09    1.1972710E+06
   -5.18   300.000    4.427E-01    1.1552622E+06    2.0344621E-09    2.6522277E-09    1.1552622E+06    6.1672203E-09    1.1588216E+06
   -5.17   300.000    4.167E-01    1.1235238E+06    2.1521931E-09    2.7658006E-09    1.1235238E+06    5.4900564E-09    1.1274832E+06
   -5.16   300.000    3.917E-01    1.0897534E+06    2.2539332E-09    2.8522171E-09    1.0897534E+06    5.0566462E-09    1.0940499E+06
   -5.15   300.000    3.678E-01    1.0485989E+06    2.2975868E-09    2.8694347E-09    1.0485989E+06    4.7908929E-09    1.0531727E+06
   -5.14   300.000    3.449E-01    9.9961556E+05    2.2595683E-09    2.7977830E-09    9.9961556E+05    4.6184066E-09    1.0044639E+06
   -5.13   300.000    3.231E-01    9.4555336E+05    2.1367064E-09    2.6389813E-09    9.4555336E+05    4.4726546E-09    9.5076091E+05
   -5.12   300.000    3.023E-01    8.8963111E+05    1.9430620E-09    2.4103257E-09    8.8963111E+05    4.3014245E-09    8.9535087E+05
   -5.11   300.000    2.825E-01    8.3338870E+05    1.7048080E-09    2.1387139E-09    8.3338870E+05    4.0762065E-09    8.3977638E+05
   -5.10   300.000    2.636E-01    7.7618701E+05    1.4526964E-09    1.8539785E-09    7.7618701E+05    3.7968198E-09    7.8331692E+05
   -5.09   300.000    2.456E-01    7.1656064E+05    1.2128769E-09    1.5813217E-09    7.1656064E+05    3.4852991E-09    7.2436781E+05
   -5.08   300.000    2.286E-01    6.5431270E+05    1.0009919E-09    1.3366002E-09    6.5431270E+05    3.1734009E-09    6.6260487E+05
   -5.07   300.000    2.126E-01    5.9163628E+05    8.2340293E-10    1.1276493E-09    5.9163628E+05    2.8924656E-09    6.0018648E+05
   -5.06   300.000    1.976E-01    5.3250344E+05    6.8341908E-10    9.5977967E-10    5.3250344E+05    2.6691516E-09    5.4117539E+05
   -5.05   300.000    1.835E-01    4.8104023E+05    5.8662636E-10    8.4030343E-10    4.8104023E+05    2.5242186E-09    4.8986737E+05
   -5.04   300.000    1.702E-01    4.4000024E+05    5.4119934E-10    7.7837540E-10    4.4000024E+05    2.4702193E-09    4.4916766E+05
   -5.03   300.000    1.573E-01    4.0983889E+05    5.5346375E-10    7.8027576E-10    4.0983889E+05    2.5066292E-09    4.1957744E+05
   -5.02   300.000    1.448E-01    3.8847981E+05    6.2208062E-10    8.4337453E-10    3.8847981E+05    2.6142312E-09    3.9892609E+05
   -5.01   300.000    1.323E-01    3.7190468E+05    7.3493614E-10    9.5308570E-10    3.7190468E+05    2.7530173E-09    3.8299926E+05
   -5.00   300.000    1.199E-01    3.5552066E+05    8.7143372E-10    1.0857544E-09    3.5552066E+05    2.8688165E-09    3.6700828E+05
   -4.99   300.000    1.077E-01    3.3572932E+05    1.0094892E-09    1.2166033E-09    3.3572932E+05    2.9103923E-09    3.4727366E+05
   -4.98   300.000    9.572E-02    3.1088970E+05    1.1324453E-09    1.3274434E-09    3.1088970E+05    2.8494960E-09    3.2223468E+05
   -4.97   300.000    8.423E-02    2.8130552E+05    1.2301835E-09    1.4080510E-09    2.8130552E+05    2.6896231E-09    2.9237428E+05
   -4.96   300.000    7.337E-02    2.4851947E+05    1.2939349E-09    1.4507387E-09    2.4851947E+05    2.4565531E-09    2.5938862E+05
   -4.95   300.000    6.320E-02    2.1447544E+05    1.3115955E-09    1.4451738E-09    2.1447544E+05    2.1801076E-09    2.2525240E+05
   -4.94   300.000    5.379E-02    1.8094410E+05    1.2707687E-09    1.3808744E-09    1.8094410E+05    1.8826552E-09    1.9163399E+05
   -4.93   300.000    4.516E-02    1.4929197E+05    1.1681544E-09    1.2561484E-09    1.4929197E+05    1.5796280E-09    1.5973826E+05
   -4.92   300.000    3.735E-02    1.2047133E+05    1.0158470E-09    1.0841513E-09    1.2047133E+05    1.2849047E-09    1.3039871E+05
   -4.91   300.000    3.038E-02    9.5079858E+04    8.3777287E-10    8.8932621E-10    9.5079858E+04    1.0126733E-09    1.0419519E+05
   -4.90   300.000    2.427E-02    7.3411745E+04    6.5952686E-10    6.9738392E-10    7.3411745E+04    7.7475623E-10    8.1488792E+04
   -4.89   300.000    1.901E-02    5.5493639E+04    4.9979567E-10    5.2687286E-10    5.5493639E+04    5.7751632E-10    6.2405112E+04
   -4.88   300.000    1.458E-02    4.1124649E+04    3.6765735E-10    3.8657040E-10    4.1124649E+04    4.2128221E-10    4.6837883E+04
   -4.87   300.000    1.096E-02    2.9933390E+04    2.6445244E-10    2.7741105E-10    2.9933390E+04    3.0200932E-10    3.4496685E+04
   -4.86   300.000    8.065E-03    2.1448415E+04    1.8708903E-10    1.9584876E-10    2.1448415E+04    2.1354614E-10    2.4974924E+04
   -4.85   300.000    5.829E-03    1.5167453E+04    1.3076947E-10    1.3664575E-10    1.5167453E+04    1.4938678E-10    1.7812603E+04
   -4.84   300.000    4.148E-03    1.0612381E+04    9.0614919E-11    9.4545821E-11    1.0612381E+04    1.0365174E-10    1.2546908E+04
   -4.83   300.000    2.915E-03    7.3641878E+03    6.2405596E-11    6.5036205E-11    7.3641878E+03    7.1478919E-11    8.7506832E+03
   -4.82   300.000    2.029E-03    5.0785420E+03    4.2793297E-11    4.4557368E-11    5.0785420E+03    4.9071288E-11    6.0570313E+03
   -4.81   300.000    1.402E-03    3.4864153E+03    2.9256926E-11    3.0442967E-11    3.4864153E+03    3.3579568E-11    4.1691410E+03
   -4.80   300.000    9.639E-04    2.3856394E+03    1.9961274E-11    2.0760656E-11    2.3856394E+03    2.2926408E-11    2.8581122E+03
   -4.79   300.000    6.602E-04    1.6286701E+03    1.3600090E-11    1.4139980E-11    1.6286701E+03    1.5628613E-11    1.9537510E+03
   -4.78   300.000    4.510E-04    1.1101112E+03    9.2575689E-12    9.6227865E-12    1.1101112E+03    1.0643063E-11    1.3328777E+03
   -4.77   300.000    3.075E-04    7.5582352E+02    6.2981916E-12    6.5455390E-12    7.5582352E+02    7.2439968E-12    9.0805087E+02
   -4.76   300.000    2.094E-04    5.1421794E+02    4.2840161E-12    4.4516709E-12    5.1421794E+02    4.9303242E-12    6.1804234E+02
   -4.75   300.000    1.425E-04    3.4966792E+02    2.9147203E-12    3.0284153E-12    3.4966792E+02    3.3579948E-12    4.2038646E+02
   -4.74   300.000    9.690E-05    2.3769927E+02    1.9850893E-12    2.0622055E-12    2.3769927E+02    2.2918095E-12    2.8582482E+02
   -4.73   300.000    6.587E-05    1.6156013E+02    1.3553162E-12    1.4076098E-12    1.6156013E+02    1.5716359E-12    1.9429052E+02
   -4.72   300.000    4.476E-05    1.0981334E+02    9.3046692E-13    9.6589445E-13    1.0981334E+02    1.0890130E-12    1.3206410E+02
   -4.71   300.000    3.040E-05    7.4664544E+01    6.4639651E-13    6.7034098E-13    7.4664544E+01    7.7112148E-13    8.9786735E+01
   -4.70   300.000    2.064E-05    5.0809603E+01    4.6016951E-13    4.7626583E-13    5.0809603E+01    5.6993825E-13    6.1085045E+01
   -4.69   300.000    1.399E-05    3.4644133E+01    3.4361908E-13    3.5430925E-13    3.4644133E+01    4.5504736E-13    4.1625317E+01
   -4.68   300.000    9.468E-06    2.3723502E+01    2.7910919E-13    2.8601436E-13    2.3723502E+01    4.0907194E-13    2.8466127E+01
   -4.67   300.000    6.376E-06    1.6395273E+01    2.5687637E-13    2.6104340E-13    1.6395273E+01    4.2506004E-13    1.9616950E+01
   -4.66   300.000    4.250E-06    1.1550153E+01    2.7355672E-13    2.7561727E-13    1.1550153E+01    5.0543979E-13    1.3738556E+01
   -4.65   300.000    2.767E-06    8.4545323E+00    3.3167910E-13    3.3194550E-13    8.4545323E+00    6.6239101E-13    9.9410175E+00
   -4.64   300.000    1.703E-06    6.6396173E+00    4.4004934E-13    4.3856203E-13    6.6396173E+00    9.1969176E-13    7.6493013E+00
   -4.63   300.000    8.969E-07    5.8305308E+00    6.1508444E-13    6.1161813E-13    5.8305308E+00    1.3163205E-12    6.5163422E+00
   -4.62   300.000    2.269E-07    5.9047237E+00    8.8329888E-13    8.7732848E-13    5.9047237E+00    1.9123592E-12    6.3705459E+00
   -4.61   300.000   -4.088E-07    6.8734275E+00    1.2853193E-12    1.2759404E-12    6.8734275E+00    2.7980911E-12    7.1898249E+00
   -4.60   300.000   -1.106E-06    8.8833497E+00    1.8820340E-12    1.8678258E-12    8.8833497E+00    4.1076669E-12    9.0982535E+00
   -4.59   300.000   -1.971E-06    1.2238867E+01    2.7638062E-12    2.7426165E-12    1.2238867E+01    6.0394037E-12    1.2384834E+01
   -4.58   300.000   -3.135E-06    1.7448057E+01    4.0641382E-12    4.0327576E-12    1.7448057E+01    8.8857765E-12    1.7547200E+01
   -4.57   300.000   -4.773E-06    2.5299486E+01    5.9798418E-12    5.9335178E-12    2.5299486E+01    1.3077609E-11    2.5366826E+01
   -4.56   300.000   -7.133E-06    3.6981282E+01    8.8007353E-12    8.7324539E-12    3.6981282E+01    1.9249090E-11    3.7027020E+01
   -4.55   300.000   -1.057E-05    5.4260265E+01    1.2953291E-11    1.2852715E-11    5.4260265E+01    2.8333295E-11    5.4291331E+01
   -4.54   300.000   -1.560E-05    7.9747741E+01    1.9064678E-11    1.8916590E-11    7.9747741E+01    4.1702345E-11    7.9768841E+01
   -4.53   300.000   -2.299E-05    1.1729104E+02    2.8056559E-11    2.7838564E-11    1.1729104E+02    6.1372673E-11    1.1730537E+02
   -4.52   300.000   -3.383E-05    1.7254758E+02    4.1282067E-11    4.0961227E-11    1.7254758E+02    9.0304868E-11    1.7255732E+02
   -4.51   300.000   -4.975E-05    2.5382291E+02    6.0725080E-11    6.0252977E-11    2.5382291E+02    1.3283999E-10    2.5382952E+02
   -4.50   300.000   -7.309E-05    3.7328792E+02    8.9288393E-11    8.8593918E-11    3.7328792E+02    1.9533083E-10    3.7329241E+02
   -4.49   300.000   -1.072E-04    5.4873437E+02    1.3120681E-10    1.3018565E-10    5.4873437E+02    2.8704746E-10    5.4873742E+02
   -4.48   300.000   -1.571E-04    8.0608079E+02    1.9263132E-10    1.9113072E-10    8.0608079E+02    4.2145911E-10    8.0608286E+02
   -4.47   300.000   -2.296E-04    1.1828951E+03    2.8243810E-10    2.8023493E-10    1.1828951E+03    6.1801220E-10    1.1828965E+03
   -4.46   300.000   -3.346E-04    1.7332306E+03    4.1331150E-10    4.1008116E-10    1.7332306E+03    9.0451648E-10    1.7332316E+03
   -4.45   300.000   -4.852E-04    2.5340249E+03    6.0311312E-10    5.9838611E-10    2.5340249E+03    1.3201738E-09    2.5340256E+03
   -4.44   300.000   -6.994E-04    3.6930661E+03    8.7643579E-10    8.6953901E-10    3.6930661E+03    1.9190412E-09    3.6930665E+03
   -4.43   300.000   -9.999E-04    5.3578916E+03    1.2659721E-09    1.2559537E-09    5.3578916E+03    2.7731377E-09    5.3578919E+03
   -4.42   300.000   -1.414E-03    7.7236471E+03    1.8127788E-09    1.7983206E-09    7.7236471E+03    3.9731995E-09    7.7236473E+03
   -4.41   300.000   -1.974E-03    1.1035643E+04    2.5635617E-09    2.5428971E-09    1.1035643E+04    5.6229676E-09    1.1035643E+04
   -4.40   300.000   -2.715E-03    1.5579333E+04    3.5618057E-09    3.5326850E-09    1.5579333E+04    7.8199582E-09    1.5579333E+04
   -4.39   300.000   -3.671E-03    2.1648451E+04    4.8287215E-09    4.7885037E-09    2.1648451E+04    1.0613664E-08    2.1648451E+04
   -4.38   300.000   -4.878E-03    2.9485848E+04    6.3319490E-09    6.2779217E-09    2.9485848E+04    1.3936355E-08    2.9485848E+04
   -4.37   300.000   -6.371E-03    3.9208773E+04    7.9487108E-09    7.8786945E-09    3.9208773E+04    1.7521033E-08    3.9208773E+04
   -4.36   300.000   -8.179E-03    5.0763035E+04    9.4469639E-09    9.3600756E-09    5.0763035E+04    2.0858621E-08    5.0763035E+04
   -4.35   300.000   -1.033E-02    6.3972292E+04    1.0521082E-08    1.0418259E-08    6.3972292E+04    2.3275222E-08    6.3972292E+04
   -4.34   300.000   -1.283E-02    7.8696652E+04    1.0899165E-08    1.0782973E-08    7.8696652E+04    2.4167087E-08    7.8696652E+04
   -4.33   300.000   -1.568E-02    9.4971159E+04    1.0476192E-08    1.0349877E-08    9.4971159E+04    2.3291700E-08    9.4971159E+04
   -4.32   300.000   -1.887E-02    1.1291652E+05    9.3775207E-09    9.2440137E-09    1.1291652E+05    2.0904938E-08    1.1291652E+05
   -4.31   300.000   -2.238E-02    1.3240808E+05    7.8990453E-09    7.7607933E-09    1.3240808E+05    1.7629045E-08    1.3240808E+05
   -4.30   300.000   -2.620E-02    1.5282627E+05    6.3725652E-09    6.2322233E-09    1.5282627E+05    1.4163648E-08    1.5282627E+05
   -4.29   300.000   -3.028E-02    1.7324788E+05    5.0499770E-09    4.9110451E-09    1.7324788E+05    1.1047920E-08    1.7324788E+05
   -4.28   300.000   -3.461E-02    1.9302307E+05    4.0566049E-09    3.9231214E-09    1.9302307E+05    8.5765322E-09    1.9302307E+05
   -4.27   300.000   -3.914E-02    2.1228561E+05    3.4056782E-09    3.2810588E-09    2.1228561E+05    6.8357559E-09    2.1228561E+05
   -4.26   300.000   -4.388E-02    2.3204226E+05    3.0424653E-09    2.9282998E-09    2.3204226E+05    5.7813342E-09    2.3204226E+05
   -4.25   300.000   -4.885E-02    2.5382301E+05    2.8890468E-09    2.7844583E-09    2.5382301E+05    5.3044642E-09    2.5382301E+05
   -4.24   300.000   -5.411E-02    2.7898324E+05    2.8727318E-09    2.7743215E-09    2.7898324E+05    5.2696472E-09    2.7898324E+05
   -4.23   300.000   -5.970E-02    3.0785342E+05    2.9367696E-09    2.8390111E-09    3.0785342E+05    5.5331474E-09    3.0785342E+05
   -4.22   300.000   -6.567E-02    3.3926141E+05    3.0433011E-09    2.9395347E-09    3.3926141E+05    5.9596828E-09    3.3926141E+05
   -4.21   300.000   -7.199E-02    3.7100603E+05    3.1774306E-09    3.0617228E-09    3.7100603E+05    6.4484418E-09    3.7100603E+05
   -4.20   300.000   -7.862E-02    4.0121092E+05    3.3514453E-09    3.2210819E-09    4.0121092E+05    6.9616540E-09    4.0121092E+05
   -4.19   300.000   -8.550E-02    4.2957334E+05    3.6017618E-09    3.4594656E-09    4.2957334E+05    7.5343839E-09    4.2957334E+05
   -4.18   300.000   -9.257E-02    4.5741556E+05    3.9753562E-09    3.8302794E-09    4.5741556E+05    8.2517041E-09    4.5741556E+05
   -4.17   300.000   -9.984E-02    4.8661627E+05    4.5114572E-09    4.3783415E-09    4.8661627E+05    9.2046108E-09    4.8661627E+05
   -4.16   300.000   -1.074E-01    5.1859544E+05    5.2258341E-09    5.1217656E-09    5.1859544E+05    1.0447600E-08    5.1859544E+05
   -4.15   300.000   -1.152E-01    5.5392112E+05    6.0971951E-09    6.0357543E-09    5.5392112E+05    1.1964279E-08    5.5392112E+05
   -4.14   300.000   -1.234E-01    5.9181577E+05    7.0517786E-09    7.0360244E-09    5.9181577E+05    1.3632398E-08    5.9181577E+05
   -4.13   300.000   -1.321E-01    6.2927847E+05    7.9546502E-09    7.9722084E-09    6.2927847E+05    1.5200343E-08    6.2927847E+05
   -4.12   300.000   -1.412E-01    6.6128449E+05    8.6319403E-09    8.6555039E-09    6.6128449E+05    1.6323743E-08    6.6128449E+05
   -4.11   300.000   -1.507E-01    6.8346508E+05    8.9371668E-09    8.9313555E-09    6.8346508E+05    1.6696775E-08    6.8346508E+05
   -4.10   300.000   -1.603E-01    6.9596169E+05    8.8309252E-09    8.7628830E-09    6.9596169E+05    1.6223250E-08    6.9596170E+05
   -4.09   300.000   -1.700E-01    7.0509107E+05    8.4125542E-09    8.2612077E-09    7.0509107E+05    1.5097037E-08    7.0509107E+05
   -4.08   300.000   -1.797E-01    7.2099887E+05    7.8734442E-09    7.6331033E-09    7.2099887E+05    1.3715388E-08    7.2099888E+05
   -4.07   300.000   -1.895E-01    7.5278937E+05    7.4059305E-09    7.0837250E-09    7.5278937E+05    1.2489647E-08    7.5278937E+05
   -4.06   300.000   -1.998E-01    8.0396470E+05    7.1259931E-09    6.7365751E-09    8.0396470E+05    1.1682372E-08    8.0396471E+05
   -4.05   300.000   -2.108E-01    8.7019234E+05    7.0412844E-09    6.6029790E-09    8.7019234E+05    1.1343498E-08    8.7019234E+05
   -4.04   300.000   -2.226E-01    9.4039766E+05    7.0657732E-09    6.5995419E-09    9.4039766E+05    1.1343013E-08    9.4039767E+05
   -4.03   300.000   -2.352E-01    1.0010497E+06    7.0705375E-09    6.5997405E-09    1.0010497E+06    1.1470405E-08    1.0010497E+06
   -4.02   300.000   -2.485E-01    1.0417795E+06    6.9514387E-09    6.4994580E-09    1.0417795E+06    1.1561670E-08    1.0417795E+06
   -4.01   300.000   -2.622E-01    1.0595495E+06    6.6828937E-09    6.2675838E-09    1.0595495E+06    1.1595409E-08    1.0595496E+06
   -4.00   300.000   -2.760E-01    1.0597201E+06    6.3300207E-09    5.9571954E-09    1.0597201E+06    1.1703456E-08    1.0597202E+06
   -3.99   300.000   -2.897E-01    1.0540618E+06    6.0155874E-09    5.6757885E-09    1.0540618E+06    1.2092363E-08    1.0540619E+06
   -3.98   300.000   -3.033E-01    1.0564194E+06    5.8626207E-09    5.5341522E-09    1.0564194E+06    1.2924174E-08    1.0564195E+06
   -3.97   300.000   -3.171E-01    1.0772130E+06    5.9399502E-09    5.5974974E-09    1.0772130E+06    1.4211869E-08    1.0772131E+06
   -3.96   300.000   -3.312E-01    1.1190384E+06    6.2311671E-09    5.8563135E-09    1.1190384E+06    1.5767172E-08    1.1190386E+06
   -3.95   300.000   -3.460E-01    1.1759386E+06    6.6386987E-09    6.2279443E-09    1.1759386E+06    1.7230552E-08    1.1759390E+06
   -3.94   300.000   -3.617E-01    1.2372239E+06    7.0249465E-09    6.5920415E-09    1.2372239E+06    1.8199020E-08    1.2372245E+06
   -3.93   300.000   -3.783E-01    1.2936376E+06    7.2761141E-09    6.8479735E-09    1.2936376E+06    1.8411616E-08    1.2936384E+06
   -3.92   300.000   -3.957E-01    1.3416113E+06    7.3553262E-09    6.9638264E-09    1.3416113E+06    1.7884085E-08    1.3416124E+06
   -3.91   300.000   -4.139E-01    1.3828338E+06    7.3116323E-09    6.9855064E-09    1.3828338E+06    1.6894999E-08    1.3828354E+06
   -3.90   300.000   -4.329E-01    1.4205518E+06    7.2414674E-09    7.0015608E-09    1.4205518E+06    1.5835419E-08    1.4205542E+06
   -3.89   300.000   -4.527E-01    1.4564103E+06    7.2306904E-09    7.0888269E-09    1.4564103E+06    1.5028858E-08    1.4564138E+06
   -3.88   300.000   -4.732E-01    1.4897884E+06    7.3075826E-09    7.2672365E-09    1.4897884E+06    1.4616300E-08    1.4897936E+06
   -3.87   300.000   -4.946E-01    1.5186748E+06    7.4229025E-09    7.4802004E-09    1.5186748E+06    1.4532478E-08    1.5186824E+06
   -3.86   300.000   -5.168E-01    1.5407402E+06    7.4667376E-09    7.6115361E-09    1.5407402E+06    1.4560205E-08    1.5407515E+06
   -3.85   300.000   -5.398E-01    1.5545365E+06    7.3242669E-09    7.5412315E-09    1.5545365E+06    1.4440775E-08    1.5545531E+06
   -3.84   300.000   -5.636E-01    1.5608941E+06    6.9458125E-09    7.2150107E-09    1.5608941E+06    1.3998494E-08    1.5609186E+06
   -3.83   300.000   -5.881E-01    1.5635852E+06    6.3824715E-09    6.6798315E-09    1.5635852E+06    1.3216430E-08    1.5636212E+06
   -3.82   300.000   -6.134E-01    1.5684571E+06    5.7585167E-09    6.0580619E-09    1.5684571E+06    1.2226550E-08    1.5685101E+06
   -3.81   300.000   -6.397E-01    1.5814996E+06    5.2048221E-09    5.4838407E-09    1.5814996E+06    1.1238403E-08    1.5815775E+06
   -3.80   300.000   -6.673E-01    1.6067478E+06    4.8046932E-09    5.0496899E-09    1.6067478E+06    1.0461042E-08    1.6068625E+06
   -3.79   300.000   -6.967E-01    1.6448493E+06    4.5822639E-09    4.7917611E-09    1.6448493E+06    1.0056997E-08    1.6450177E+06
   -3.78   300.000   -7.282E-01    1.6931467E+06    4.5273134E-09    4.7098211E-09    1.6931467E+06    1.0137928E-08    1.6933937E+06
   -3.77   300.000   -7.622E-01    1.7471987E+06    4.6313243E-09    4.8003070E-09    1.7471987E+06    1.0788393E-08    1.7475606E+06
   -3.76   300.000   -7.988E-01    1.8024042E+06    4.9118192E-09    5.0806348E-09    1.8024042E+06    1.2092524E-08    1.8029333E+06
   -3.75   300.000   -8.382E-01    1.8547329E+06    5.4148066E-09    5.5934767E-09    1.8547329E+06    1.4142201E-08    1.8555038E+06
   -3.74   300.000   -8.804E-01    1.9009043E+06    6.1978391E-09    6.3919786E-09    1.9009043E+06    1.7017050E-08    1.9020222E+06
   -3.73   300.000   -9.256E-01    1.9384762E+06    7.3033683E-09    7.5143995E-09    1.9384762E+06    2.0738984E-08    1.9400860E+06
   -3.72   300.000   -9.735E-01    1.9654185E+06    8.7348011E-09    8.9602257E-09    1.9654185E+06    2.5221267E-08    1.9677141E+06
   -3.71   300.000   -1.024E+00    1.9791950E+06    1.0448364E-08    1.0681835E-08    1.9791950E+06    3.0251950E-08    1.9824235E+06
   -3.70   300.000   -1.077E+00    1.9768245E+06    1.2367104E-08    1.2599221E-08    1.9768245E+06    3.5543500E-08    1.9812792E+06
   -3.69   300.000   -1.133E+00    1.9567426E+06    1.4402598E-08    1.4623114E-08    1.9567426E+06    4.0819171E-08    1.9627349E+06
   -3.68   300.000   -1.191E+00    1.9206758E+06    1.6452447E-08    1.6653061E-08    1.9206758E+06    4.5844857E-08    1.9284757E+06
   -3.67   300.000   -1.252E+00    1.8733576E+06    1.8362975E-08    1.8538833E-08    1.8733576E+06    5.0357330E-08    1.8831098E+06
   -3.66   300.000   -1.315E+00    1.8206908E+06    1.9903151E-08    2.0051843E-08    1.8206908E+06    5.3981473E-08    1.8323315E+06
   -3.65   300.000   -1.381E+00    1.7687241E+06    2.0819119E-08    2.0937860E-08    1.7687241E+06    5.6295097E-08    1.7819462E+06
   -3.64   300.000   -1.450E+00    1.7241795E+06    2.0972889E-08    2.1055948E-08    1.7241795E+06    5.7060435E-08    1.7384785E+06
   -3.63   300.000   -1.522E+00    1.6948675E+06    2.0464596E-08    2.0502775E-08    1.6948675E+06    5.6430781E-08    1.7096460E+06
   -3.62   300.000   -1.599E+00    1.6882909E+06    1.9619521E-08    1.9602156E-08    1.6882909E+06    5.4920745E-08    1.7029632E+06
   -3.61   300.000   -1.679E+00    1.7087321E+06    1.8827256E-08    1.8745782E-08    1.7087321E+06    5.3140208E-08    1.7227908E+06
   -3.60   300.000   -1.763E+00    1.7545537E+06    1.8338251E-08    1.8189615E-08    1.7545537E+06    5.1492519E-08    1.7676065E+06
   -3.59   300.000   -1.851E+00    1.8171735E+06    1.8142974E-08    1.7931591E-08    1.8171735E+06    5.0032773E-08    1.8289705E+06
   -3.58   300.000   -1.941E+00    1.8822451E+06    1.7999271E-08    1.7737102E-08    1.8822451E+06    4.8544484E-08    1.8926888E+06
   -3.57   300.000   -2.032E+00    1.9330095E+06    1.7593402E-08    1.7298295E-08    1.9330095E+06    4.6772839E-08    1.9421305E+06
   -3.56   300.000   -2.122E+00    1.9550517E+06    1.6740700E-08    1.6433257E-08    1.9550517E+06    4.4675092E-08    1.9629544E+06
   -3.55   300.000   -2.212E+00    1.9403644E+06    1.5494131E-08    1.5193827E-08    1.9403644E+06    4.2518377E-08    1.9471711E+06
   -3.54   300.000   -2.300E+00    1.8884723E+06    1.4093029E-08    1.3815097E-08    1.8884723E+06    4.0746431E-08    1.8942926E+06
   -3.53   300.000   -2.387E+00    1.8046650E+06    1.2808459E-08    1.2562829E-08    1.8046650E+06    3.9715012E-08    1.8095937E+06
   -3.52   300.000   -2.472E+00    1.6974412E+06    1.1801354E-08    1.1593426E-08    1.6974412E+06    3.9482705E-08    1.7015659E+06
   -3.51   300.000   -2.556E+00    1.5764864E+06    1.1069079E-08    1.0900876E-08    1.5764864E+06    3.9775428E-08    1.5798916E+06
   -3.50   300.000   -2.641E+00    1.4509207E+06    1.0487237E-08    1.0358125E-08    1.4509207E+06    4.0125599E-08    1.4536908E+06
   -3.49   300.000   -2.726E+00    1.3277884E+06    9.9079589E-09    9.8153421E-09    1.3277884E+06    4.0104944E-08    1.3300103E+06
   -3.48   300.000   -2.812E+00    1.2116087E+06    9.2549728E-09    9.1954067E-09    1.2116087E+06    3.9528467E-08    1.2133741E+06
   -3.47   300.000   -2.899E+00    1.1051961E+06    8.5639489E-09    8.5341942E-09    1.1051961E+06    3.8521770E-08    1.1065966E+06
   -3.46   300.000   -2.988E+00    1.0106683E+06    7.9612543E-09    7.9585077E-09    1.0106683E+06    3.7439253E-08    1.0117869E+06
   -3.45   300.000   -3.078E+00    9.2958034E+05    7.6216423E-09    7.6428799E-09    9.2958034E+05    3.6729608E-08    9.3048277E+05
   -3.44   300.000   -3.169E+00    8.6226379E+05    7.7456063E-09    7.7866580E-09    8.6226379E+05    3.6853856E-08    8.6299555E+05
   -3.43   300.000   -3.259E+00    8.0712521E+05    8.5579881E-09    8.6130047E-09    8.0712521E+05    3.8279846E-08    8.0771505E+05
   -3.42   300.000   -3.347E+00    7.6055205E+05    1.0301918E-08    1.0363616E-08    7.6055205E+05    4.1505435E-08    7.6101927E+05
   -3.41   300.000   -3.432E+00    7.1777160E+05    1.3205581E-08    1.3266376E-08    7.1777160E+05    4.7041230E-08    7.1813262E+05
   -3.40   300.000   -3.512E+00    6.7443019E+05    1.7416155E-08    1.7469912E-08    6.7443019E+05    5.5297896E-08    6.7470181E+05
   -3.39   300.000   -3.586E+00    6.2790525E+05    2.2908837E-08    2.2952472E-08    6.2790525E+05    6.6360852E-08    6.2810462E+05
   -3.38   300.000   -3.653E+00    5.7745678E+05    2.9385413E-08    2.9419405E-08    5.7745678E+05    7.9690870E-08    5.7760014E+05
   -3.37   300.000   -3.714E+00    5.2347274E+05    3.6188059E-08    3.6215477E-08    5.2347274E+05    9.3859096E-08    5.2357418E+05
   -3.36   300.000   -3.767E+00    4.6680659E+05    4.2289472E-08    4.2314034E-08    4.6680659E+05    1.0650834E-07    4.6687751E+05
   -3.35   300.000   -3.815E+00    4.0868233E+05    4.6461598E-08    4.6485896E-08    4.0868233E+05    1.1478097E-07    4.0873148E+05
   -3.34   300.000   -3.855E+00    3.5085732E+05    4.7676156E-08    4.7700902E-08    3.5085732E+05    1.1629463E-07    3.5089117E+05
   -3.33   300.000   -3.890E+00    2.9564569E+05    4.5580599E-08    4.5605010E-08    2.9564569E+05    1.1026329E-07    2.9566890E+05
   -3.32   300.000   -3.919E+00    2.4570056E+05    4.0706016E-08    4.0728786E-08    2.4570056E+05    9.7964722E-08    2.4571643E+05
   -3.31   300.000   -3.944E+00    2.0363361E+05    3.4211853E-08    3.4232027E-08    2.0363361E+05    8.2125568E-08    2.0364444E+05
   -3.30   300.000   -3.965E+00    1.7161354E+05    2.7364903E-08    2.7382286E-08    1.7161354E+05    6.5701763E-08    1.7162092E+05
   -3.29   300.000   -3.982E+00    1.5109431E+05    2.1121827E-08    2.1136965E-08    1.5109431E+05    5.0914041E-08    1.5109933E+05
   -3.28   300.000   -3.999E+00    1.4276307E+05    1.5995148E-08    1.6009128E-08    1.4276307E+05    3.8948721E-08    1.4276649E+05
   -3.27   300.000   -4.015E+00    1.4670386E+05    1.2134835E-08    1.2149080E-08    1.4670386E+05    3.0158516E-08    1.4670618E+05
   -3.26   300.000   -4.032E+00    1.6271145E+05    9.4793272E-09    9.4954079E-09    1.6271145E+05    2.4420319E-08    1.6271303E+05
   -3.25   300.000   -4.051E+00    1.9065838E+05    7.8808718E-09    7.9002678E-09    1.9065838E+05    2.1427759E-08    1.9065946E+05
   -3.24   300.000   -4.075E+00    2.3077546E+05    7.1777482E-09    7.2015202E-09    2.3077546E+05    2.0853134E-08    2.3077618E+05
   -3.23   300.000   -4.104E+00    2.8370362E+05    7.2224757E-09    7.2508673E-09    2.8370362E+05    2.2397303E-08    2.8370411E+05
   -3.22   300.000   -4.140E+00    3.5029026E+05    7.8847534E-09    7.9168235E-09    3.5029026E+05    2.5771756E-08    3.5029060E+05
   -3.21   300.000   -4.183E+00    4.3122734E+05    9.0450966E-09    9.0784953E-09    4.3122734E+05    3.0660075E-08    4.3122757E+05
   -3.20   300.000   -4.235E+00    5.2663461E+05    1.0587297E-08    1.0618326E-08    5.2663461E+05    3.6698051E-08    5.2663477E+05
   -3.19   300.000   -4.294E+00    6.3568122E+05    1.2388429E-08    1.2412675E-08    6.3568122E+05    4.3483543E-08    6.3568132E+05
   -3.18   300.000   -4.359E+00    7.5637831E+05    1.4301588E-08    1.4315552E-08    7.5637831E+05    5.0583804E-08    7.5637838E+05
   -3.17   300.000   -4.430E+00    8.8569652E+05    1.6137349E-08    1.6141246E-08    8.8569652E+05    5.7495757E-08    8.8569656E+05
   -3.16   300.000   -4.503E+00    1.0201504E+06    1.7667449E-08    1.7668406E-08    1.0201504E+06    6.3573501E-08    1.0201504E+06
   -3.15   300.000   -4.577E+00    1.1567332E+06    1.8670880E-08    1.8684818E-08    1.1567332E+06    6.8018892E-08    1.1567332E+06
   -3.14   300.000   -4.650E+00    1.2934682E+06    1.9005201E-08    1.9055595E-08    1.2934682E+06    7.0029928E-08    1.2934683E+06
   -3.13   300.000   -4.721E+00    1.4288024E+06    1.8651022E-08    1.8764094E-08    1.4288024E+06    6.9087249E-08    1.4288024E+06
   -3.12   300.000   -4.789E+00    1.5603621E+06    1.7698317E-08    1.7896274E-08    1.5603621E+06    6.5218784E-08    1.5603621E+06
   -3.11   300.000   -4.852E+00    1.6845408E+06    1.6300833E-08    1.6596215E-08    1.6845408E+06    5.9048730E-08    1.6845408E+06
   -3.10   300.000   -4.912E+00    1.7970860E+06    1.4643094E-08    1.5036765E-08    1.7970860E+06    5.1577573E-08    1.7970860E+06
   -3.09   300.000   -4.968E+00    1.8932037E+06    1.2924934E-08    1.3407746E-08    1.8932037E+06    4.3837909E-08    1.8932037E+06
   -3.08   300.000   -5.020E+00    1.9668622E+06    1.1334088E-08    1.1889836E-08    1.9668622E+06    3.6620819E-08    1.9668622E+06
   -3.07   300.000   -5.067E+00    2.0115173E+06    9.9967145E-09    1.0604045E-08    2.0115173E+06    3.0363612E-08    2.0115173E+06
   -3.06   300.000   -5.111E+00    2.0239888E+06    8.9392405E-09    9.5723005E-09    2.0239888E+06    2.5184285E-08    2.0239888E+06
   -3.05   300.000   -5.151E+00    2.0096358E+06    8.1017997E-09    8.7314090E-09    2.0096358E+06    2.1004054E-08    2.0096358E+06
   -3.04   300.000   -5.187E+00    1.9847979E+06    7.4017932E-09    7.9987656E-09    1.9847979E+06    1.7689789E-08    1.9847979E+06
   -3.03   300.000   -5.220E+00    1.9739393E+06    6.8009896E-09    7.3410146E-09    1.9739393E+06    1.5157065E-08    1.9739393E+06
   -3.02   300.000   -5.249E+00    2.0022000E+06    6.3291559E-09    6.7963075E-09    2.0022000E+06    1.3403089E-08    2.0022000E+06
   -3.01   300.000   -5.277E+00    2.0869113E+06    6.0595659E-09    6.4457508E-09    2.0869113E+06    1.2481107E-08    2.0869113E+06
   -3.00   300.000   -5.304E+00    2.2325839E+06    6.0692340E-09    6.3699995E-09    2.2325839E+06    1.2457510E-08    2.2325839E+06
   -2.99   300.000   -5.330E+00    2.4319116E+06    6.4159046E-09    6.6262548E-09    2.4319116E+06    1.3385454E-08    2.4319116E+06
   -2.98   300.000   -5.356E+00    2.6714797E+06    7.1381003E-09    7.2523041E-09    2.6714797E+06    1.5297024E-08    2.6714797E+06
   -2.97   300.000   -5.383E+00    2.9383998E+06    8.2626201E-09    8.2787231E-09    2.9383998E+06    1.8191773E-08    2.9383998E+06
   -2.96   300.000   -5.410E+00    3.2246438E+06    9.7971378E-09    9.7224832E-09    3.2246438E+06    2.1998236E-08    3.2246438E+06
   -2.95   300.000   -5.437E+00    3.5271358E+06    1.1692856E-08    1.1545645E-08    3.5271358E+06    2.6501084E-08    3.5271358E+06
   -2.94   300.000   -5.466E+00    3.8423218E+06    1.3784077E-08    1.3589490E-08    3.8423218E+06    3.1253642E-08    3.8423218E+06
   -2.93   300.000   -5.496E+00    4.1570112E+06    1.5746126E-08    1.5530111E-08    4.1570112E+06    3.5537095E-08    4.1570112E+06
   -2.92   300.000   -5.527E+00    4.4428222E+06    1.7137223E-08    1.6921902E-08    4.4428222E+06    3.8464854E-08    4.4428222E+06
   -2.91   300.000   -5.558E+00    4.6617388E+06    1.7557110E-08    1.7358942E-08    4.6617388E+06    3.9285012E-08    4.6617388E+06
   -2.90   300.000   -5.591E+00    4.7809302E+06    1.6851640E-08    1.6681207E-08    4.7809302E+06    3.7755164E-08    4.7809302E+06
   -2.89   300.000   -5.624E+00    4.7860906E+06    1.5210792E-08    1.5073737E-08    4.7860906E+06    3.4309404E-08    4.7860906E+06
   -2.88   300.000   -5.656E+00    4.6852335E+06    1.3072391E-08    1.2972214E-08    4.6852335E+06    2.9856721E-08    4.6852335E+06
   -2.87   300.000   -5.688E+00    4.5038070E+06    1.0908430E-08    1.0850881E-08    4.5038070E+06    2.5363586E-08    4.5038070E+06
   -2.86   300.000   -5.719E+00    4.2755414E+06    9.0478533E-09    9.0442295E-09    4.2755414E+06    2.1513833E-08    4.2755414E+06
   -2.85   300.000   -5.748E+00    4.0323622E+06    7.6195986E-09    7.6856742E-09    4.0323622E+06    1.8596350E-08    4.0323622E+06
   -2.84   300.000   -5.777E+00    3.7967026E+06    6.5955080E-09    6.7454792E-09    3.7967026E+06    1.6576405E-08    3.7967026E+06
   -2.83   300.000   -5.805E+00    3.5791098E+06    5.8694851E-09    6.1082308E-09    3.5791098E+06    1.5236436E-08    3.5791098E+06
   -2.82   300.000   -5.833E+00    3.3813610E+06    5.3248416E-09    5.6435515E-09    3.3813610E+06    1.4307404E-08    3.3813610E+06
   -2.81   300.000   -5.859E+00    3.2028180E+06    4.8736245E-09    5.2520112E-09    3.2028180E+06    1.3565912E-08    3.2028180E+06
   -2.80   300.000   -5.886E+00    3.0463709E+06    4.4702624E-09    4.8842935E-09    3.0463709E+06    1.2891035E-08    3.0463709E+06
   -2.79   300.000   -5.912E+00    2.9202432E+06    4.1055628E-09    4.5356925E-09    2.9202432E+06    1.2267848E-08    2.9202432E+06
   -2.78   300.000   -5.938E+00    2.8348918E+06    3.7893176E-09    4.2237073E-09    2.8348918E+06    1.1738925E-08    2.8348918E+06
   -2.77   300.000   -5.965E+00    2.7983950E+06    3.5339980E-09    3.9650536E-09    2.7983950E+06    1.1342133E-08    2.7983950E+06
   -2.76   300.000   -5.992E+00    2.8144122E+06    3.3497971E-09    3.7672593E-09    2.8144122E+06    1.1082041E-08    2.8144122E+06
   -2.75   300.000   -6.019E+00    2.8841200E+06    3.2516695E-09    3.6374212E-09    2.8841200E+06    1.0949217E-08    2.8841200E+06
   -2.74   300.000   -6.047E+00    3.0107218E+06    3.2699725E-09    3.5978752E-09    3.0107218E+06    1.0964247E-08    3.0107218E+06
   -2.73   300.000   -6.075E+00    3.2028975E+06    3.4537987E-09    3.6941225E-09    3.2028975E+06    1.1209785E-08    3.2028975E+06
   -2.72   300.000   -6.104E+00    3.4729242E+06    3.8622981E-09    3.9874114E-09    3.4729242E+06    1.1827348E-08    3.4729242E+06
   -2.71   300.000   -6.132E+00    3.8286595E+06    4.5493598E-09    4.5374432E-09    3.8286595E+06    1.2985328E-08    3.8286595E+06
   -2.70   300.000   -6.161E+00    4.2639265E+06    5.5511415E-09    5.3874779E-09    4.2639265E+06    1.4844026E-08    4.2639265E+06
   -2.69   300.000   -6.191E+00    4.7540024E+06    6.8817633E-09    6.5597808E-09    4.7540024E+06    1.7534947E-08    4.7540024E+06
   -2.68   300.000   -6.222E+00    5.2608808E+06    8.5350958E-09    8.0594867E-09    5.2608808E+06    2.1149854E-08    5.2608808E+06
   -2.67   300.000   -6.253E+00    5.7472856E+06    1.0485131E-08    9.8770848E-09    5.7472856E+06    2.5723629E-08    5.7472856E+06
   -2.66   300.000   -6.285E+00    6.1908034E+06    1.2680333E-08    1.1981756E-08    6.1908034E+06    3.1204352E-08    6.1908034E+06
   -2.65   300.000   -6.318E+00    6.5880409E+06    1.5039799E-08    1.4311425E-08    6.5880409E+06    3.7428654E-08    6.5880409E+06
   -2.64   300.000   -6.352E+00    6.9473867E+06    1.7462919E-08    1.6773025E-08    6.9473867E+06    4.4127185E-08    6.9473867E+06
   -2.63   300.000   -6.386E+00    7.2772374E+06    1.9841907E-08    1.9248428E-08    7.2772374E+06    5.0942200E-08    7.2772374E+06
   -2.62   300.000   -6.421E+00    7.5760073E+06    2.2044992E-08    2.1579539E-08    7.5760073E+06    5.7396362E-08    7.5760073E+06
   -2.61   300.000   -6.457E+00    7.8273162E+06    2.3869899E-08    2.3531584E-08    7.8273162E+06    6.2817858E-08    7.8273162E+06
   -2.60   300.000   -6.492E+00    8.0040041E+06    2.5038205E-08    2.4799029E-08    8.0040041E+06    6.6380012E-08    8.0040041E+06
   -2.59   300.000   -6.527E+00    8.0829866E+06    2.5306234E-08    2.5124041E-08    8.0829866E+06    6.7420248E-08    8.0829866E+06
   -2.58   300.000   -6.561E+00    8.0655038E+06    2.4649761E-08    2.4482963E-08    8.0655038E+06    6.5919230E-08    8.0655038E+06
   -2.57   300.000   -6.594E+00    7.9886021E+06    2.3361801E-08    2.3181192E-08    7.9886021E+06    6.2733976E-08    7.9886021E+06
   -2.56   300.000   -6.625E+00    7.9137583E+06    2.1956882E-08    2.1752234E-08    7.9137583E+06    5.9315574E-08    7.9137583E+06
   -2.55   300.000   -6.654E+00    7.8938406E+06    2.0948696E-08    2.0730011E-08    7.8938406E+06    5.7085750E-08    7.8938406E+06
   -2.54   300.000   -6.682E+00    7.9391067E+06    2.0646513E-08    2.0440536E-08    7.9391067E+06    5.6858800E-08    7.9391067E+06
   -2.53   300.000   -6.710E+00    8.0062926E+06    2.1050579E-08    2.0893334E-08    8.0062926E+06    5.8538087E-08    8.0062926E+06
   -2.52   300.000   -6.738E+00    8.0188511E+06    2.1854408E-08    2.1781573E-08    8.0188511E+06    6.1129758E-08    8.0188511E+06
   -2.51   300.000   -6.765E+00    7.9065643E+06    2.2554813E-08    2.2593028E-08    7.9065643E+06    6.3086642E-08    7.9065643E+06
   -2.50   300.000   -6.793E+00    7.6426246E+06    2.2663011E-08    2.2824836E-08    7.6426246E+06    6.2948624E-08    7.6426246E+06
   -2.49   300.000   -6.819E+00    7.2583783E+06    2.1937281E-08    2.2220237E-08    7.2583783E+06    6.0024243E-08    7.2583783E+06
   -2.48   300.000   -6.845E+00    6.8275828E+06    2.0489236E-08    2.0876843E-08    6.8275828E+06    5.4681698E-08    6.8275828E+06
   -2.47   300.000   -6.870E+00    6.4294911E+06    1.8684778E-08    1.9147152E-08    6.4294911E+06    4.8042754E-08    6.4294911E+06
   -2.46   300.000   -6.894E+00    6.1139000E+06    1.6930408E-08    1.7424293E-08    6.1139000E+06    4.1354662E-08    6.1139000E+06
   -2.45   300.000   -6.918E+00    5.8891716E+06    1.5511803E-08    1.5982581E-08    5.8891716E+06    3.5505807E-08    5.8891716E+06
   -2.44   300.000   -6.941E+00    5.7362706E+06    1.4568216E-08    1.4956501E-08    5.7362706E+06    3.0904787E-08    5.7362706E+06
   -2.43   300.000   -6.965E+00    5.6324053E+06    1.4162332E-08    1.4414533E-08    5.6324053E+06    2.7617741E-08    5.6324053E+06
   -2.42   300.000   -6.988E+00    5.5629983E+06    1.4352942E-08    1.4430952E-08    5.5629983E+06    2.5543663E-08    5.5629983E+06
   -2.41   300.000   -7.010E+00    5.5154160E+06    1.5211453E-08    1.5096368E-08    5.5154160E+06    2.4499180E-08    5.5154160E+06
   -2.40   300.000   -7.032E+00    5.4678004E+06    1.6790226E-08    1.6480267E-08    5.4678004E+06    2.4233372E-08    5.4678004E+06
   -2.39   300.000   -7.052E+00    5.3905685E+06    1.9083728E-08    1.8591334E-08    5.3905685E+06    2.4454518E-08    5.3905685E+06
   -2.38   300.000   -7.072E+00    5.2637378E+06    2.2003232E-08    2.1354264E-08    5.2637378E+06    2.4895716E-08    5.2637378E+06
   -2.37   300.000   -7.091E+00    5.0963357E+06    2.5350520E-08    2.4582864E-08    5.0963357E+06    2.5368204E-08    5.0963357E+06
   -2.36   300.000   -7.108E+00    4.9304231E+06    2.8771733E-08    2.7929784E-08    4.9304231E+06    2.5744746E-08    4.9304231E+06
   -2.35   300.000   -7.125E+00    4.8242426E+06    3.1716563E-08    3.0843319E-08    4.8242426E+06    2.5883436E-08    4.8242426E+06
   -2.34   300.000   -7.141E+00    4.8258524E+06    3.3490979E-08    3.2622929E-08    4.8258524E+06    2.5575815E-08    4.8258524E+06
   -2.33   300.000   -7.157E+00    4.9552262E+06    3.3478361E-08    3.2644947E-08    4.9552262E+06    2.4601711E-08    4.9552262E+06
   -2.32   300.000   -7.173E+00    5.2039440E+06    3.1448001E-08    3.0672324E-08    5.2039440E+06    2.2869257E-08    5.2039440E+06
   -2.31   300.000   -7.189E+00    5.5474814E+06    2.7715341E-08    2.7013075E-08    5.5474814E+06    2.0510803E-08    5.5474814E+06
   -2.30   300.000   -7.206E+00    5.9594552E+06    2.3003606E-08    2.2381427E-08    5.9594552E+06    1.7838561E-08    5.9594552E+06
   -2.29   300.000   -7.224E+00    6.4220444E+06    1.8121088E-08    1.7577366E-08    6.4220444E+06    1.5206636E-08    6.4220444E+06
   -2.28   300.000   -7.243E+00    6.9323228E+06    1.3692153E-08    1.3218684E-08    6.9323228E+06    1.2897614E-08    6.9323228E+06
   -2.27   300.000   -7.264E+00    7.5026683E+06    1.0063797E-08    9.6436707E-09    7.5026683E+06    1.1089469E-08    7.5026683E+06
   -2.26   300.000   -7.285E+00    8.1503604E+06    7.3496444E-09    6.9485159E-09    8.1503604E+06    9.8716652E-09    8.1503604E+06
   -2.25   300.000   -7.308E+00    8.8785094E+06    5.5191207E-09    5.0741384E-09    8.8785094E+06    9.2616003E-09    8.8785094E+06
   -2.24   300.000   -7.333E+00    9.6628920E+06    4.4689785E-09    3.8848689E-09    9.6628920E+06    9.2072629E-09    9.6628920E+06
   -2.23   300.000   -7.358E+00    1.0456990E+07    4.0602520E-09    3.2204333E-09    1.0456990E+07    9.5913447E-09    1.0456990E+07
   -2.22   300.000   -7.385E+00    1.1209407E+07    4.1348878E-09    2.9277530E-09    1.1209407E+07    1.0256326E-08    1.1209407E+07
   -2.21   300.000   -7.413E+00    1.1878014E+07    4.5341079E-09    2.8857988E-09    1.1878014E+07    1.1056180E-08    1.1878014E+07
   -2.20   300.000   -7.441E+00    1.2433458E+07    5.1256595E-09    3.0253251E-09    1.2433458E+07    1.1911960E-08    1.2433458E+07
   -2.19   300.000   -7.470E+00    1.2854785E+07    5.8264139E-09    3.3309840E-09    1.2854785E+07    1.2827825E-08    1.2854785E+07
   -2.18   300.000   -7.498E+00    1.3122483E+07    6.6015050E-09    3.8164307E-09    1.3122483E+07    1.3846628E-08    1.3122483E+07
   -2.17   300.000   -7.527E+00    1.3213820E+07    7.4337957E-09    4.4806697E-09    1.3213820E+07    1.4973789E-08    1.3213820E+07
   -2.16   300.000   -7.555E+00    1.3102181E+07    8.2769725E-09    5.2669423E-09    1.3102181E+07    1.6117209E-08    1.3102181E+07
   -2.15   300.000   -7.583E+00    1.2759290E+07    9.0224027E-09    6.0475461E-09    1.2759290E+07    1.7072857E-08    1.2759290E+07
   -2.14   300.000   -7.610E+00    1.2163840E+07    9.5109252E-09    6.6502249E-09    1.2163840E+07    1.7569234E-08    1.2163840E+07
   -2.13   300.000   -7.635E+00    1.1320729E+07    9.5942470E-09    6.9204684E-09    1.1320729E+07    1.7367182E-08    1.1320729E+07
   -2.12   300.000   -7.658E+00    1.0279296E+07    9.2091016E-09    6.7862532E-09    1.0279296E+07    1.6369445E-08    1.0279296E+07
   -2.11   300.000   -7.679E+00    9.1300086E+06    8.4109341E-09    6.2840949E-09    9.1300086E+06    1.4665922E-08    9.1300086E+06
   -2.10   300.000   -7.697E+00    7.9791002E+06    7.3477666E-09    5.5342306E-09    7.9791002E+06    1.2485092E-08    7.9791002E+06
   -2.09   300.000   -7.714E+00    6.9229949E+06    6.2031133E-09    4.6903100E-09    6.9229949E+06    1.0098734E-08    6.9229949E+06
   -2.08   300.000   -7.728E+00    6.0380363E+06    5.1453925E-09    3.8949290E-09    6.0380363E+06    7.7439107E-09    6.0380363E+06
   -2.07   300.000   -7.740E+00    5.3807128E+06    4.2974863E-09    3.2530317E-09    5.3807128E+06    5.5859782E-09    5.3807128E+06
   -2.06   300.000   -7.752E+00    4.9867478E+06    3.7240450E-09    2.8214529E-09    4.9867478E+06    3.7150212E-09    4.9867478E+06
   -2.05   300.000   -7.764E+00    4.8652332E+06    3.4317509E-09    2.6096242E-09    4.8652332E+06    2.1623737E-09    4.8652332E+06
   -2.04   300.000   -7.775E+00    4.9930790E+06    3.3765687E-09    2.5849664E-09    4.9930790E+06    9.2356892E-10    4.9930790E+06
   -2.03   300.000   -7.787E+00    5.3170986E+06    3.4734257E-09    2.6784227E-09    5.3170986E+06   -2.5161519E-11    5.3170986E+06
   -2.02   300.000   -7.801E+00    5.7652826E+06    3.6105027E-09    2.7931189E-09    5.7652826E+06   -7.2167052E-10    5.7652826E+06
   -2.01   300.000   -7.815E+00    6.2606983E+06    3.6736031E-09    2.8240683E-09    6.2606983E+06   -1.2166374E-09    6.2606983E+06
   -2.00   300.000   -7.830E+00    6.7305522E+06    3.5779698E-09    2.6894957E-09    6.7305522E+06   -1.5644742E-09    6.7305522E+06
   -1.99   300.000   -7.846E+00    7.1123599E+06    3.2933930E-09    2.3595912E-09    7.1123599E+06   -1.8048448E-09    7.1123599E+06
   -1.98   300.000   -7.862E+00    7.3656477E+06    2.8494489E-09    1.8646788E-09    7.3656477E+06   -1.9487328E-09    7.3656477E+06
   -1.97   300.000   -7.878E+00    7.4880212E+06    2.3208920E-09    1.2786857E-09    7.4880212E+06   -1.9844377E-09    7.4880212E+06
   -1.96   300.000   -7.894E+00    7.5211331E+06    1.8028363E-09    6.8981028E-10    7.5211331E+06   -1.9017938E-09    7.5211331E+06
   -1.95   300.000   -7.909E+00    7.5365645E+06    1.3854226E-09    1.7366741E-10    7.5365645E+06   -1.7168066E-09    7.5365645E+06
   -1.94   300.000   -7.925E+00    7.6082597E+06    1.1341285E-09   -2.2255176E-10    7.6082597E+06   -1.4800696E-09    7.6082597E+06
   -1.93   300.000   -7.940E+00    7.7855420E+06    1.0778912E-09   -4.8410062E-10    7.7855420E+06   -1.2637369E-09    7.7855420E+06
   -1.92   300.000   -7.955E+00    8.0768027E+06    1.2036453E-09   -6.2497983E-10    8.0768027E+06   -1.1326652E-09    8.0768027E+06
   -1.91   300.000   -7.970E+00    8.4488099E+06    1.4567299E-09   -6.8127835E-10    8.4488099E+06   -1.1144282E-09    8.4488099E+06
   -1.90   300.000   -7.986E+00    8.8414962E+06    1.7514787E-09   -7.0240102E-10    8.8414962E+06   -1.1860163E-09    8.8414962E+06
   -1.89   300.000   -8.003E+00    9.1919382E+06    1.9955470E-09   -7.3837583E-10    9.1919382E+06   -1.2857093E-09    9.1919382E+06
   -1.88   300.000   -8.019E+00    9.4569558E+06    2.1209441E-09   -8.2511759E-10    9.4569558E+06   -1.3425265E-09    9.4569558E+06
   -1.87   300.000   -8.036E+00    9.6242375E+06    2.1061844E-09   -9.7405771E-10    9.6242375E+06   -1.3064368E-09    9.6242375E+06
   -1.86   300.000   -8.053E+00    9.7082092E+06    1.9793697E-09   -1.1701292E-09    9.7082092E+06   -1.1652988E-09    9.7082092E+06
   -1.85   300.000   -8.069E+00    9.7361193E+06    1.8048531E-09   -1.3766321E-09    9.7361193E+06   -9.4415683E-10    9.7361193E+06
   -1.84   300.000   -8.085E+00    9.7368230E+06    1.6614796E-09   -1.5464941E-09    9.7368230E+06   -6.9120612E-10    9.7368230E+06
   -1.83   300.000   -8.100E+00    9.7433692E+06    1.6178089E-09   -1.6422361E-09    9.7433692E+06   -4.5842762E-10    9.7433692E+06
   -1.82   300.000   -8.115E+00    9.8049311E+06    1.7099479E-09   -1.6587137E-09    9.8049311E+06   -2.8516471E-10    9.8049311E+06
   -1.81   300.000   -8.130E+00    9.9853446E+06    1.9306205E-09   -1.6306578E-09    9.9853446E+06   -1.9064685E-10    9.9853446E+06
   -1.80   300.000   -8.146E+00    1.0332575E+07    2.2343307E-09   -1.6129519E-09    1.0332575E+07   -1.7533425E-10    1.0332575E+07
   -1.79   300.000   -8.162E+00    1.0835596E+07    2.5539708E-09   -1.6445205E-09    1.0835596E+07   -2.2460319E-10    1.0835596E+07
   -1.78   300.000   -8.180E+00    1.1405312E+07    2.8207420E-09   -1.7209169E-09    1.1405312E+07   -3.0898079E-10    1.1405312E+07
   -1.77   300.000   -8.198E+00    1.1902252E+07    2.9839746E-09   -1.7927649E-09    1.1902252E+07   -3.8338139E-10    1.1902252E+07
   -1.76   300.000   -8.218E+00    1.2198148E+07    3.0286635E-09   -1.7886130E-09    1.2198148E+07   -3.9397556E-10    1.2198148E+07
   -1.75   300.000   -8.238E+00    1.2229386E+07    2.9823178E-09   -1.6466280E-09    1.2229386E+07   -2.9508727E-10    1.2229386E+07
   -1.74   300.000   -8.258E+00    1.2006529E+07    2.9032618E-09   -1.3363701E-09    1.2006529E+07   -6.4465436E-11    1.2006529E+07
   -1.73   300.000   -8.278E+00    1.1584750E+07    2.8570781E-09   -8.6090577E-10    1.1584750E+07    2.9674693E-10    1.1584750E+07
   -1.72   300.000   -8.297E+00    1.1032010E+07    2.8989022E-09   -2.4447755E-10    1.1032010E+07    7.7661441E-10    1.1032010E+07
   -1.71   300.000   -8.315E+00    1.0421152E+07    3.0710074E-09    4.8159651E-10    1.0421152E+07    1.3624487E-09    1.0421152E+07
   -1.70   300.000   -8.332E+00    9.8369197E+06    3.4093173E-09    1.2878159E-09    9.8369197E+06    2.0422642E-09    9.8369197E+06
   -1.69   300.000   -8.349E+00    9.3719554E+06    3.9475676E-09    2.1514189E-09    9.3719554E+06    2.8054775E-09    9.3719554E+06
   -1.68   300.000   -8.365E+00    9.1013087E+06    4.7118794E-09    3.0569852E-09    9.1013087E+06    3.6456652E-09    9.1013087E+06
   -1.67   300.000   -8.381E+00    9.0490689E+06    5.7032088E-09    3.9872560E-09    9.0490689E+06    4.5547403E-09    9.0490689E+06
   -1.66   300.000   -8.397E+00    9.1692855E+06    6.8752352E-09    4.9076123E-09    9.1692855E+06    5.5063645E-09    9.1692855E+06
   -1.65   300.000   -8.413E+00    9.3555929E+06    8.1307665E-09    5.7663726E-09    9.3555929E+06    6.4537430E-09    9.3555929E+06
   -1.64   300.000   -8.430E+00    9.4791337E+06    9.3583565E-09    6.5300515E-09    9.4791337E+06    7.3688767E-09    9.4791337E+06
   -1.63   300.000   -8.446E+00    9.4384872E+06    1.0496245E-08    7.2338918E-09    9.4384872E+06    8.3038550E-09    9.4384872E+06
   -1.62   300.000   -8.463E+00    9.1955471E+06    1.1573098E-08    7.9941345E-09    9.1955471E+06    9.4087683E-09    9.1955471E+06
   -1.61   300.000   -8.478E+00    8.7781253E+06    1.2684105E-08    8.9518876E-09    8.7781253E+06    1.0863010E-08    8.7781253E+06
   -1.60   300.000   -8.493E+00    8.2527767E+06    1.3910573E-08    1.0178433E-08    8.2527767E+06    1.2748928E-08    8.2527767E+06
   -1.59   300.000   -8.507E+00    7.6904047E+06    1.5227758E-08    1.1598230E-08    7.6904047E+06    1.4938087E-08    7.6904047E+06
   -1.58   300.000   -8.520E+00    7.1455312E+06    1.6451789E-08    1.2968400E-08    7.1455312E+06    1.7052650E-08    7.1455312E+06
   -1.57   300.000   -8.531E+00    6.6536574E+06    1.7270930E-08    1.3935730E-08    6.6536574E+06    1.8546864E-08    6.6536574E+06
   -1.56   300.000   -8.542E+00    6.2389981E+06    1.7377418E-08    1.4172663E-08    6.2389981E+06    1.8915302E-08    6.2389981E+06
   -1.55   300.000   -8.551E+00    5.9239290E+06    1.6641129E-08    1.3537881E-08    5.9239290E+06    1.7940555E-08    5.9239290E+06
   -1.54   300.000   -8.560E+00    5.7331452E+06    1.5202394E-08    1.2155921E-08    5.7331452E+06    1.5816884E-08    5.7331452E+06
   -1.53   300.000   -8.568E+00    5.6870532E+06    1.3410129E-08    1.0355619E-08    5.6870532E+06    1.3059630E-08    5.6870532E+06
   -1.52   300.000   -8.576E+00    5.7868534E+06    1.1663676E-08    8.5242757E-09    5.7868534E+06    1.0285731E-08    5.7868534E+06
   -1.51   300.000   -8.584E+00    6.0039016E+06    1.0279422E-08    6.9860161E-09    6.0039016E+06    8.0254192E-09    6.0039016E+06
   -1.50   300.000   -8.592E+00    6.2854828E+06    9.4441262E-09    5.9553764E-09    6.2854828E+06    6.6421608E-09    6.2854828E+06
   -1.49   300.000   -8.601E+00    6.5778210E+06    9.2323380E-09    5.5412126E-09    6.5778210E+06    6.3293640E-09    6.5778210E+06
   -1.48   300.000   -8.610E+00    6.8549506E+06    9.6357165E-09    5.7549369E-09    6.8549506E+06    7.1180248E-09    6.8549506E+06
   -1.47   300.000   -8.619E+00    7.1346258E+06    1.0569563E-08    6.5010966E-09    7.1346258E+06    8.8596558E-09    7.1346258E+06
   -1.46   300.000   -8.628E+00    7.4660411E+06    1.1852741E-08    7.5589868E-09    7.4660411E+06    1.1197353E-08    7.4660411E+06
   -1.45   300.000   -8.638E+00    7.8950077E+06    1.3189093E-08    8.5834802E-09    7.8950077E+06    1.3571916E-08    7.8950077E+06
   -1.44   300.000   -8.649E+00    8.4351087E+06    1.4200042E-08    9.1595551E-09    8.4351087E+06    1.5315949E-08    8.4351087E+06
   -1.43   300.000   -8.661E+00    9.0693581E+06    1.4537296E-08    8.9242220E-09    9.0693581E+06    1.5851215E-08    9.0693581E+06
   -1.42   300.000   -8.673E+00    9.7746739E+06    1.4029890E-08    7.7109907E-09    9.7746739E+06    1.4914652E-08    9.7746740E+06
   -1.41   300.000   -8.687E+00    1.0536986E+07    1.2759610E-08    5.6243826E-09    1.0536986E+07    1.2669625E-08    1.0536986E+07
   -1.40   300.000   -8.702E+00    1.1338358E+07    1.1002982E-08    2.9902276E-09    1.1338358E+07    9.6222735E-09    1.1338358E+07
   -1.39   300.000   -8.719E+00    1.2130871E+07    9.0900816E-09    2.2403058E-10    1.2130871E+07    6.4112135E-09    1.2130871E+07
   -1.38   300.000   -8.736E+00    1.2824023E+07    7.2807170E-09   -2.2967183E-09    1.2824023E+07    3.5999347E-09    1.2824023E+07
   -1.37   300.000   -8.755E+00    1.3298620E+07    5.7150831E-09   -4.3072549E-09    1.3298620E+07    1.5435787E-09    1.3298621E+07
   -1.36   300.000   -8.774E+00    1.3444326E+07    4.4339842E-09   -5.6762828E-09    1.3444326E+07    3.4098571E-10    1.3444327E+07
   -1.35   300.000   -8.794E+00    1.3206892E+07    3.4325169E-09   -6.3894219E-09    1.3206892E+07   -1.3139644E-10    1.3206893E+07
   -1.34   300.000   -8.814E+00    1.2620481E+07    2.7077998E-09   -6.5133203E-09    1.2620481E+07   -1.1938209E-10    1.2620483E+07
   -1.33   300.000   -8.833E+00    1.1801009E+07    2.2757451E-09   -6.1570187E-09    1.1801009E+07    1.2980230E-10    1.1801010E+07
   -1.32   300.000   -8.851E+00    1.0900547E+07    2.1575462E-09   -5.4403432E-09    1.0900547E+07    4.5148678E-10    1.0900550E+07
   -1.31   300.000   -8.867E+00    1.0053920E+07    2.3585592E-09   -4.4708787E-09    1.0053920E+07    7.8210576E-10    1.0053924E+07
   -1.30   300.000   -8.883E+00    9.3511580E+06    2.8616927E-09   -3.3298347E-09    9.3511580E+06    1.1292527E-09    9.3511644E+06
   -1.29   300.000   -8.897E+00    8.8391116E+06    3.6374989E-09   -2.0671634E-09    8.8391116E+06    1.5328276E-09    8.8391210E+06
   -1.28   300.000   -8.911E+00    8.5298006E+06    4.6586833E-09   -7.0090037E-10    8.5298006E+06    2.0453622E-09    8.5298144E+06
   -1.27   300.000   -8.923E+00    8.4020405E+06    5.9097693E-09    7.8532473E-10    8.4020405E+06    2.7333472E-09    8.4020608E+06
   -1.26   300.000   -8.935E+00    8.4084237E+06    7.3913396E-09    2.4422577E-09    8.4084237E+06    3.6824161E-09    8.4084536E+06
   -1.25   300.000   -8.947E+00    8.5018837E+06    9.1190060E-09    4.3393205E-09    8.5018837E+06    4.9848374E-09    8.5019277E+06
   -1.24   300.000   -8.959E+00    8.6692317E+06    1.1110597E-08    6.5260846E-09    8.6692317E+06    6.6979468E-09    8.6692965E+06
   -1.23   300.000   -8.970E+00    8.9389235E+06    1.3350986E-08    8.9780975E-09    8.9389235E+06    8.7820617E-09    8.9390188E+06
   -1.22   300.000   -8.982E+00    9.3462896E+06    1.5733924E-08    1.1544596E-08    9.3462896E+06    1.1043490E-08    9.3464298E+06
   -1.21   300.000   -8.994E+00    9.8780644E+06    1.8011238E-08    1.3926947E-08    9.8780644E+06    1.3119311E-08    9.8782706E+06
   -1.20   300.000   -9.007E+00    1.0440607E+07    1.9811804E-08    1.5730550E-08    1.0440607E+07    1.4547852E-08    1.0440911E+07
   -1.19   300.000   -9.020E+00    1.0881154E+07    2.0770405E-08    1.6610659E-08    1.0881154E+07    1.4942372E-08    1.0881600E+07
   -1.18   300.000   -9.033E+00    1.1050793E+07    2.0708662E-08    1.6447066E-08    1.1050793E+07    1.4197565E-08    1.1051447E+07
   -1.17   300.000   -9.047E+00    1.0866641E+07    1.9730290E-08    1.5414644E-08    1.0866641E+07    1.2581303E-08    1.0867600E+07
   -1.16   300.000   -9.061E+00    1.0337511E+07    1.8152217E-08    1.3883579E-08    1.0337511E+07    1.0618640E-08    1.0338914E+07
   -1.15   300.000   -9.074E+00    9.5495864E+06    1.6340893E-08    1.2233678E-08    9.5495864E+06    8.8356513E-09    9.5516338E+06
   -1.14   300.000   -9.087E+00    8.6294588E+06    1.4581691E-08    1.0721030E-08    8.6294588E+06    7.5318673E-09    8.6324338E+06
   -1.13   300.000   -9.098E+00    7.7024923E+06    1.3038692E-08    9.4536747E-09    7.7024923E+06    6.7121217E-09    7.7067890E+06
   -1.12   300.000   -9.109E+00    6.8615243E+06    1.1780724E-08    8.4415871E-09    6.8615243E+06    6.1891187E-09    6.8676761E+06
   -1.11   300.000   -9.119E+00    6.1573689E+06    1.0826985E-08    7.6612247E-09    6.1573689E+06    5.7571489E-09    6.1660674E+06
   -1.10   300.000   -9.129E+00    5.6089963E+06    1.0175113E-08    7.0918984E-09    5.6089963E+06    5.3096956E-09    5.6210809E+06
   -1.09   300.000   -9.138E+00    5.2164169E+06    9.7953521E-09    6.7115633E-09    5.2164169E+06    4.8458116E-09    5.2328005E+06
   -1.08   300.000   -9.146E+00    4.9640010E+06    9.6079426E-09    6.4731250E-09    4.9640010E+06    4.4075354E-09    4.9854913E+06
   -1.07   300.000   -9.154E+00    4.8218894E+06    9.4852753E-09    6.2983901E-09    4.8218894E+06    4.0232127E-09    4.8488878E+06
   -1.06   300.000   -9.162E+00    4.7599752E+06    9.3047517E-09    6.1098080E-09    4.7599752E+06    3.6944183E-09    4.7921129E+06
   -1.05   300.000   -9.170E+00    4.7717982E+06    9.0274044E-09    5.8823060E-09    4.7717982E+06    3.4153153E-09    4.8076900E+06
   -1.04   300.000   -9.178E+00    4.8873826E+06    8.7405509E-09    5.6730642E-09    4.8873826E+06    3.1936106E-09    4.9247378E+06
   -1.03   300.000   -9.186E+00    5.1600924E+06    8.6267323E-09    5.6030460E-09    5.1600924E+06    3.0540080E-09    5.1962635E+06
   -1.02   300.000   -9.194E+00    5.6359834E+06    8.8818165E-09    5.8031511E-09    5.6359834E+06    3.0279913E-09    5.6687215E+06
   -1.01   300.000   -9.203E+00    6.3263027E+06    9.6322017E-09    6.3558913E-09    6.3263027E+06    3.1447397E-09    6.3543129E+06
   -1.00   300.000   -9.212E+00    7.1952701E+06    1.0880185E-08    7.2526368E-09    7.1952701E+06    3.4309164E-09    7.2183345E+06
   -0.99   300.000   -9.222E+00    8.1622876E+06    1.2484907E-08    8.3761510E-09    8.1622876E+06    3.9136183E-09    8.1810413E+06
   -0.98   300.000   -9.232E+00    9.1146063E+06    1.4186783E-08    9.5194924E-09    9.1146063E+06    4.6146454E-09    9.1302060E+06
   -0.97   300.000   -9.244E+00    9.9299047E+06    1.5678805E-08    1.0444508E-08    9.9299047E+06    5.5302981E-09    9.9437740E+06
   -0.96   300.000   -9.256E+00    1.0506935E+07    1.6698763E-08    1.0955344E-08    1.0506935E+07    6.6038924E-09    1.0520650E+07
   -0.95   300.000   -9.269E+00    1.0796251E+07    1.7096318E-08    1.0946271E-08    1.0796251E+07    7.7109002E-09    1.0811550E+07
   -0.94   300.000   -9.282E+00    1.0819965E+07    1.6856130E-08    1.0411186E-08    1.0819965E+07    8.6814102E-09    1.0838837E+07
   -0.93   300.000   -9.295E+00    1.0668273E+07    1.6095156E-08    9.4399024E-09    1.0668273E+07    9.3651147E-09    1.0693085E+07
   -0.92   300.000   -9.308E+00    1.0463317E+07    1.5042293E-08    8.2167545E-09    1.0463317E+07    9.7020783E-09    1.0496910E+07
   -0.91   300.000   -9.321E+00    1.0300751E+07    1.3986526E-08    7.0032059E-09    1.0300751E+07    9.7494314E-09    1.0346425E+07
   -0.90   300.000   -9.333E+00    1.0205207E+07    1.3201587E-08    6.0882504E-09    1.0205207E+07    9.6622061E-09    1.0266471E+07
   -0.89   300.000   -9.346E+00    1.0132760E+07    1.2886654E-08    5.7213674E-09    1.0132760E+07    9.6723597E-09    1.0212680E+07
   -0.88   300.000   -9.358E+00    1.0015328E+07    1.3148099E-08    6.0563480E-09    1.0015328E+07    1.0081134E-08    1.0115418E+07
   -0.87   300.000   -9.371E+00    9.8072444E+06    1.4005616E-08    7.1211150E-09    9.8072444E+06    1.1216327E-08    9.9261234E+06
   -0.86   300.000   -9.383E+00    9.5005790E+06    1.5388753E-08    8.8086597E-09    9.5005790E+06    1.3304624E-08    9.6330524E+06
   -0.85   300.000   -9.395E+00    9.1116235E+06    1.7110951E-08    1.0875973E-08    9.1116235E+06    1.6287071E-08    9.2490855E+06
   -0.84   300.000   -9.407E+00    8.6627015E+06    1.8847955E-08    1.2953251E-08    8.6627015E+06    1.9694279E-08    8.7951565E+06
   -0.83   300.000   -9.419E+00    8.1753523E+06    2.0178345E-08    1.4596164E-08    8.1753523E+06    2.2721026E-08    8.2941916E+06
   -0.82   300.000   -9.430E+00    7.6748965E+06    2.0723981E-08    1.5413738E-08    7.6748965E+06    2.4540923E-08    7.7749204E+06
   -0.81   300.000   -9.441E+00    7.1980116E+06    2.0334153E-08    1.5232515E-08    7.1980116E+06    2.4699718E-08    7.2778279E+06
   -0.80   300.000   -9.452E+00    6.7925189E+06    1.9171250E-08    1.4177551E-08    6.7925189E+06    2.3303089E-08    6.8536286E+06
   -0.79   300.000   -9.462E+00    6.5043761E+06    1.7611106E-08    1.2590580E-08    6.5043761E+06    2.0860660E-08    6.5498247E+06
   -0.78   300.000   -9.472E+00    6.3597784E+06    1.6034285E-08    1.0846546E-08    6.3597784E+06    1.7943247E-08    6.3930451E+06
   -0.77   300.000   -9.482E+00    6.3553787E+06    1.4665634E-08    9.2028087E-09    6.3553787E+06    1.4927724E-08    6.3797271E+06
   -0.76   300.000   -9.492E+00    6.4609195E+06    1.3547656E-08    7.7566578E-09    6.4609195E+06    1.1960029E-08    6.4791444E+06
   -0.75   300.000   -9.502E+00    6.6272162E+06    1.2615798E-08    6.4921816E-09    6.6272162E+06    9.0740788E-09    6.6416377E+06
   -0.74   300.000   -9.512E+00    6.7908259E+06    1.1787674E-08    5.3540633E-09    6.7908259E+06    6.3310096E-09    6.8034092E+06
   -0.73   300.000   -9.522E+00    6.8783597E+06    1.1004432E-08    4.2994112E-09    6.8783597E+06    3.8803780E-09    6.8908909E+06
   -0.72   300.000   -9.531E+00    6.8239428E+06    1.0226063E-08    3.3158530E-09    6.8239428E+06    1.9234493E-09    6.8382284E+06
   -0.71   300.000   -9.540E+00    6.6013679E+06    9.4174061E-09    2.4182878E-09    6.6013679E+06    6.2500501E-10    6.6194535E+06
   -0.70   300.000   -9.549E+00    6.2478677E+06    8.5488083E-09    1.6359501E-09    6.2478677E+06    4.1933179E-11    6.2722776E+06
   -0.69   300.000   -9.557E+00    5.8560275E+06    7.6118989E-09    9.9436473E-10    5.8560275E+06    1.1008327E-10    5.8900215E+06
   -0.68   300.000   -9.565E+00    5.5385649E+06    6.6390658E-09    4.9843136E-10    5.5385649E+06    6.8177779E-10    5.5863889E+06
   -0.67   300.000   -9.572E+00    5.3907294E+06    5.7084541E-09    1.2528699E-10    5.3907294E+06    1.5755394E-09    5.4577847E+06
   -0.66   300.000   -9.580E+00    5.4684717E+06    4.9220988E-09   -1.6981597E-10    5.4684717E+06    2.6076884E-09    5.5612479E+06
   -0.65   300.000   -9.588E+00    5.7841530E+06    4.3674843E-09   -4.3798306E-10    5.7841530E+06    3.6046819E-09    5.9096668E+06
   -0.64   300.000   -9.596E+00    6.3113225E+06    4.0874559E-09   -7.1513264E-10    6.3113225E+06    4.4144373E-09    6.4757503E+06
   -0.63   300.000   -9.605E+00    6.9891689E+06    4.0737349E-09   -9.9787829E-10    6.9891689E+06    4.9301038E-09    7.1955338E+06
   -0.62   300.000   -9.615E+00    7.7253845E+06    4.2787915E-09   -1.2291324E-09    7.7253845E+06    5.1176762E-09    7.9707572E+06
   -0.61   300.000   -9.625E+00    8.4063860E+06    4.6282824E-09   -1.3155884E-09    8.4063860E+06    5.0226623E-09    8.6799867E+06
   -0.60   300.000   -9.636E+00    8.9234993E+06    5.0216344E-09   -1.1865218E-09    8.9234993E+06    4.7429264E-09    9.2075174E+06
   -0.59   300.000   -9.647E+00    9.2096134E+06    5.3315794E-09   -8.6114639E-10    9.2096134E+06    4.3852852E-09    9.4833825E+06
   -0.58   300.000   -9.659E+00    9.2643776E+06    5.4332169E-09   -4.5753259E-10    9.2643776E+06    4.0366631E-09    9.5101123E+06
   -0.57   300.000   -9.670E+00    9.1440664E+06    5.2709289E-09   -1.0988131E-10    9.1440664E+06    3.7615133E-09    9.3510417E+06
   -0.56   300.000   -9.681E+00    8.9149858E+06    4.9126425E-09    1.4236896E-10    8.9149858E+06    3.6088196E-09    9.0803646E+06
   -0.55   300.000   -9.692E+00    8.6034893E+06    4.5261777E-09    3.8346427E-10    8.6034893E+06    3.6064590E-09    8.7304382E+06
   -0.54   300.000   -9.702E+00    8.1850515E+06    4.2830029E-09    7.3768115E-10    8.1850515E+06    3.7432352E-09    8.2799627E+06
   -0.53   300.000   -9.713E+00    7.6220487E+06    4.2703669E-09    1.2582972E-09    7.6220487E+06    3.9623764E-09    7.6922594E+06
   -0.52   300.000   -9.722E+00    6.9157115E+06    4.4847824E-09    1.8948121E-09    6.9157115E+06    4.1863463E-09    6.9681826E+06
   -0.51   300.000   -9.731E+00    6.1284123E+06    4.8999187E-09    2.5568011E-09    6.1284123E+06    4.3626128E-09    6.1692347E+06
   -0.50   300.000   -9.739E+00    5.3644790E+06    5.5353563E-09    3.1990572E-09    5.3644790E+06    4.4961954E-09    5.3989016E+06
# T(K) = 400.00   Npoints =     901   V(cm^3) =  3.483E-22
   -9.50   400.000    1.594E+01    5.2273518E+05    1.8740977E-08    1.8486576E-08    5.2273518E+05    4.4024873E-08    5.2273518E+05
   -9.49   400.000    1.594E+01    5.7559929E+05    1.8626482E-08    1.8332063E-08    5.7559929E+05    4.7622697E-08    5.7559929E+05
   -9.48   400.000    1.594E+01    6.3687168E+05    1.8687474E-08    1.8351113E-08    6.3687168E+05    5.1959088E-08    6.3687168E+05
   -9.47   400.000    1.593E+01    7.0645955E+05    1.8973864E-08    1.8595511E-08    7.0645955E+05    5.7001681E-08    7.0645955E+05
   -9.46   400.000    1.593E+01    7.8301459E+05    1.9452884E-08    1.9034466E-08    7.8301459E+05    6.2473173E-08    7.8301459E+05
   -9.45   400.000    1.592E+01    8.6358121E+05    2.0012510E-08    1.9558233E-08    8.6358121E+05    6.7839459E-08    8.6358121E+05
   -9.44   400.000    1.592E+01    9.4367171E+05    2.0482448E-08    1.9999180E-08    9.4367171E+05    7.2373222E-08    9.4367171E+05
   -9.43   400.000    1.591E+01    1.0179896E+06    2.0674403E-08    2.0171750E-08    1.0179896E+06    7.5303869E-08    1.0179896E+06
   -9.42   400.000    1.591E+01    1.0816497E+06    2.0434716E-08    1.9924400E-08    1.0816497E+06    7.6023300E-08    1.0816497E+06
   -9.41   400.000    1.590E+01    1.1313059E+06    1.9691227E-08    1.9185695E-08    1.1313059E+06    7.4270354E-08    1.1313059E+06
   -9.40   400.000    1.589E+01    1.1655306E+06    1.8473373E-08    1.7984062E-08    1.1655306E+06    7.0206896E-08    1.1655306E+06
   -9.39   400.000    1.589E+01    1.1842906E+06    1.6896411E-08    1.6432305E-08    1.1842906E+06    6.4348056E-08    1.1842906E+06
   -9.38   400.000    1.588E+01    1.1880722E+06    1.5119868E-08    1.4686816E-08    1.1880722E+06    5.7388010E-08    1.1880722E+06
   -9.37   400.000    1.588E+01    1.1774864E+06    1.3302089E-08    1.2902892E-08    1.1774864E+06    5.0010570E-08    1.1774864E+06
   -9.36   400.000    1.587E+01    1.1537610E+06    1.1569488E-08    1.1204401E-08    1.1537610E+06    4.2760644E-08    1.1537610E+06
   -9.35   400.000    1.586E+01    1.1197695E+06    1.0006302E-08    9.6735186E-09    1.1197695E+06    3.6001088E-08    1.1197695E+06
   -9.34   400.000    1.586E+01    1.0807858E+06    8.6591953E-09    8.3550559E-09    1.0807858E+06    2.9933372E-08    1.0807858E+06
   -9.33   400.000    1.585E+01    1.0443110E+06    7.5469814E-09    7.2658735E-09    1.0443110E+06    2.4643801E-08    1.0443110E+06
   -9.32   400.000    1.585E+01    1.0189014E+06    6.6682940E-09    6.4023872E-09    1.0189014E+06    2.0146122E-08    1.0189014E+06
   -9.31   400.000    1.584E+01    1.0124713E+06    6.0050434E-09    5.7440138E-09    1.0124713E+06    1.6409392E-08    1.0124713E+06
   -9.30   400.000    1.584E+01    1.0307325E+06    5.5233806E-09    5.2542264E-09    1.0307325E+06    1.3373426E-08    1.0307325E+06
   -9.29   400.000    1.583E+01    1.0762621E+06    5.1754297E-09    4.8824247E-09    1.0762621E+06    1.0958560E-08    1.0762621E+06
   -9.28   400.000    1.583E+01    1.1483813E+06    4.9045680E-09    4.5694068E-09    1.1483813E+06    9.0747048E-09    1.1483813E+06
   -9.27   400.000    1.582E+01    1.2437601E+06    4.6551313E-09    4.2573731E-09    1.2437601E+06    7.6311631E-09    1.2437601E+06
   -9.26   400.000    1.582E+01    1.3574464E+06    4.3845870E-09    3.9025523E-09    1.3574464E+06    6.5459380E-09    1.3574464E+06
   -9.25   400.000    1.581E+01    1.4838794E+06    4.0736299E-09    3.4859031E-09    1.4838794E+06    5.7519948E-09    1.4838794E+06
   -9.24   400.000    1.580E+01    1.6174507E+06    3.7292713E-09    3.0169207E-09    1.6174507E+06    5.1984897E-09    1.6174507E+06
   -9.23   400.000    1.580E+01    1.7524294E+06    3.3789113E-09    2.5284460E-09    1.7524294E+06    4.8471375E-09    1.7524294E+06
   -9.22   400.000    1.579E+01    1.8824688E+06    3.0580179E-09    2.0649037E-09    1.8824688E+06    4.6664681E-09    1.8824688E+06
   -9.21   400.000    1.578E+01    2.0002314E+06    2.7971758E-09    1.6693122E-09    2.0002314E+06    4.6277458E-09    2.0002314E+06
   -9.20   400.000    1.577E+01    2.0977041E+06    2.6139268E-09    1.3739331E-09    2.0977041E+06    4.7048623E-09    2.0977041E+06
   -9.19   400.000    1.576E+01    2.1674634E+06    2.5117997E-09    1.1966972E-09    2.1674634E+06    4.8776391E-09    2.1674634E+06
   -9.18   400.000    1.575E+01    2.2045771E+06    2.4854101E-09    1.1428590E-09    2.2045771E+06    5.1358552E-09    2.2045771E+06
   -9.17   400.000    1.574E+01    2.2082959E+06    2.5283151E-09    1.2099718E-09    2.2082959E+06    5.4812927E-09    2.2082959E+06
   -9.16   400.000    1.572E+01    2.1826202E+06    2.6400261E-09    1.3940520E-09    2.1826202E+06    5.9268372E-09    2.1826202E+06
   -9.15   400.000    1.571E+01    2.1354247E+06    2.8298905E-09    1.6950849E-09    2.1354247E+06    6.4937535E-09    2.1354247E+06
   -9.14   400.000    1.570E+01    2.0766986E+06    3.1174528E-09    2.1205619E-09    2.0766986E+06    7.2092950E-09    2.0766986E+06
   -9.13   400.000    1.569E+01    2.0168684E+06    3.5303330E-09    2.6864876E-09    2.0168684E+06    8.1062209E-09    2.0168684E+06
   -9.12   400.000    1.568E+01    1.9657967E+06    4.1010746E-09    3.4161067E-09    1.9657967E+06    9.2240684E-09    1.9657967E+06
   -9.11   400.000    1.567E+01    1.9323213E+06    4.8640111E-09    4.3371258E-09    1.9323213E+06    1.0610293E-08    1.9323213E+06
   -9.10   400.000    1.565E+01    1.9237873E+06    5.8524778E-09    5.4782332E-09    1.9237873E+06    1.2318810E-08    1.9237873E+06
   -9.09   400.000    1.564E+01    1.9452264E+06    7.0960583E-09    6.8653430E-09    1.9452264E+06    1.4404547E-08    1.9452264E+06
   -9.08   400.000    1.562E+01    1.9983979E+06    8.6171943E-09    8.5174919E-09    1.9983979E+06    1.6914743E-08    1.9983979E+06
   -9.07   400.000    1.561E+01    2.0812916E+06    1.0426362E-08    1.0441875E-08    2.0812916E+06    1.9879372E-08    2.0812916E+06
   -9.06   400.000    1.559E+01    2.1885750E+06    1.2514954E-08    1.2627095E-08    2.1885750E+06    2.3302983E-08    2.1885750E+06
   -9.05   400.000    1.557E+01    2.3129251E+06    1.4845241E-08    1.5033672E-08    2.3129251E+06    2.7158558E-08    2.3129251E+06
   -9.04   400.000    1.556E+01    2.4466206E+06    1.7338346E-08    1.7582286E-08    2.4466206E+06    3.1382552E-08    2.4466206E+06
   -9.03   400.000    1.553E+01    2.5826256E+06    1.9864702E-08    2.0143983E-08    2.5826256E+06    3.5870659E-08    2.5826256E+06
   -9.02   400.000    1.551E+01    2.7147431E+06    2.2245458E-08    2.2540847E-08    2.7147431E+06    4.0475334E-08    2.7147431E+06
   -9.01   400.000    1.549E+01    2.8369821E+06    2.4273114E-08    2.4565861E-08    2.8369821E+06    4.5006885E-08    2.8369821E+06
   -9.00   400.000    1.546E+01    2.9427342E+06    2.5751864E-08    2.6022909E-08    2.9427342E+06    4.9239573E-08    2.9427342E+06
   -8.99   400.000    1.543E+01    3.0245376E+06    2.6545658E-08    2.6775210E-08    3.0245376E+06    5.2924218E-08    3.0245376E+06
   -8.98   400.000    1.540E+01    3.0750307E+06    2.6614363E-08    2.6782500E-08    3.0750307E+06    5.5809963E-08    3.0750307E+06
   -8.97   400.000    1.537E+01    3.0890696E+06    2.6022884E-08    2.6111385E-08    3.0890696E+06    5.7677161E-08    3.0890696E+06
   -8.96   400.000    1.534E+01    3.0661249E+06    2.4921406E-08    2.4916442E-08    3.0661249E+06    5.8378209E-08    3.0661249E+06
   -8.95   400.000    1.531E+01    3.0116114E+06    2.3507030E-08    2.3401783E-08    3.0116114E+06    5.7875696E-08    3.0116114E+06
   -8.94   400.000    1.528E+01    2.9362420E+06    2.1981408E-08    2.1777495E-08    2.9362420E+06    5.6263210E-08    2.9362420E+06
   -8.93   400.000    1.525E+01    2.8535668E+06    2.0516373E-08    2.0223382E-08    2.8535668E+06    5.3756987E-08    2.8535668E+06
   -8.92   400.000    1.521E+01    2.7767594E+06    1.9234129E-08    1.8867361E-08    2.7767594E+06    5.0656012E-08    2.7767594E+06
   -8.91   400.000    1.518E+01    2.7159312E+06    1.8203147E-08    1.7780433E-08    2.7159312E+06    4.7281257E-08    2.7159312E+06
   -8.90   400.000    1.515E+01    2.6768496E+06    1.7446647E-08    1.6985365E-08    2.6768496E+06    4.3914761E-08    2.6768496E+06
   -8.89   400.000    1.512E+01    2.6612567E+06    1.6957547E-08    1.6472616E-08    2.6612567E+06    4.0758502E-08    2.6612567E+06
   -8.88   400.000    1.508E+01    2.6682558E+06    1.6712285E-08    1.6215271E-08    2.6682558E+06    3.7921311E-08    2.6682558E+06
   -8.87   400.000    1.505E+01    2.6957430E+06    1.6677314E-08    1.6176258E-08    2.6957430E+06    3.5428691E-08    2.6957430E+06
   -8.86   400.000    1.502E+01    2.7409262E+06    1.6806358E-08    1.6305856E-08    2.7409262E+06    3.3243938E-08    2.7409262E+06
   -8.85   400.000    1.499E+01    2.7996871E+06    1.7032316E-08    1.6533631E-08    2.7996871E+06    3.1290355E-08    2.7996871E+06
   -8.84   400.000    1.496E+01    2.8654666E+06    1.7261754E-08    1.6763059E-08    2.8654666E+06    2.9469659E-08    2.8654666E+06
   -8.83   400.000    1.493E+01    2.9288032E+06    1.7380044E-08    1.6876929E-08    2.9288032E+06    2.7677166E-08    2.9288032E+06
   -8.82   400.000    1.490E+01    2.9782954E+06    1.7270438E-08    1.6756729E-08    2.9782954E+06    2.5817370E-08    2.9782954E+06
   -8.81   400.000    1.487E+01    3.0028602E+06    1.6842630E-08    1.6311320E-08    3.0028602E+06    2.3822221E-08    3.0028602E+06
   -8.80   400.000    1.484E+01    2.9943456E+06    1.6059462E-08    1.5503490E-08    2.9943456E+06    2.1669631E-08    2.9943456E+06
   -8.79   400.000    1.481E+01    2.9493464E+06    1.4949416E-08    1.4362110E-08    2.9493464E+06    1.9395152E-08    2.9493464E+06
   -8.78   400.000    1.479E+01    2.8695763E+06    1.3599055E-08    1.2974152E-08    2.8695763E+06    1.7089617E-08    2.8695763E+06
   -8.77   400.000    1.476E+01    2.7609956E+06    1.2129539E-08    1.1460836E-08    2.7609956E+06    1.4880883E-08    2.7609956E+06
   -8.76   400.000    1.474E+01    2.6324519E+06    1.0668009E-08    9.9487273E-09    2.6324519E+06    1.2905313E-08    2.6324519E+06
   -8.75   400.000    1.472E+01    2.4945072E+06    9.3243051E-09    8.5462442E-09    2.4945072E+06    1.1279131E-08    2.4945072E+06
   -8.74   400.000    1.470E+01    2.3585752E+06    8.1781504E-09    7.3308292E-09    2.3585752E+06    1.0078733E-08    2.3585752E+06
   -8.73   400.000    1.468E+01    2.2360459E+06    7.2762576E-09    6.3463706E-09    2.2360459E+06    9.3339170E-09    2.2360459E+06
   -8.72   400.000    1.466E+01    2.1371228E+06    6.6357756E-09    5.6073439E-09    2.1371228E+06    9.0321591E-09    2.1371228E+06
   -8.71   400.000    1.465E+01    2.0694934E+06    6.2502882E-09    5.1057466E-09    2.0694934E+06    9.1285033E-09    2.0694934E+06
   -8.70   400.000    1.463E+01    2.0372154E+06    6.0958755E-09    4.8181028E-09    2.0372154E+06    9.5555735E-09    2.0372154E+06
   -8.69   400.000    1.462E+01    2.0400650E+06    6.1361279E-09    4.7112916E-09    2.0400650E+06    1.0230988E-08    2.0400650E+06
   -8.68   400.000    1.460E+01    2.0733046E+06    6.3259507E-09    4.7469850E-09    2.0733046E+06    1.1063076E-08    2.0733046E+06
   -8.67   400.000    1.459E+01    2.1277701E+06    6.6145021E-09    4.8848765E-09    2.1277701E+06    1.1957941E-08    2.1277701E+06
   -8.66   400.000    1.457E+01    2.1904242E+06    6.9477961E-09    5.0848179E-09    2.1904242E+06    1.2829980E-08    2.1904242E+06
   -8.65   400.000    1.456E+01    2.2457533E+06    7.2714993E-09    5.3079170E-09    2.2457533E+06    1.3614359E-08    2.2457533E+06
   -8.64   400.000    1.455E+01    2.2782564E+06    7.5345141E-09    5.5170999E-09    2.2782564E+06    1.4276463E-08    2.2782564E+06
   -8.63   400.000    1.454E+01    2.2757376E+06    7.6939349E-09    5.6784011E-09    2.2757376E+06    1.4813470E-08    2.2757376E+06
   -8.62   400.000    1.452E+01    2.2324714E+06    7.7211864E-09    5.7641606E-09    2.2324714E+06    1.5247003E-08    2.2324714E+06
   -8.61   400.000    1.451E+01    2.1509707E+06    7.6073472E-09    5.7575460E-09    2.1509707E+06    1.5609546E-08    2.1509707E+06
   -8.60   400.000    1.450E+01    2.0414317E+06    7.3642860E-09    5.6555945E-09    2.0414317E+06    1.5928164E-08    2.0414317E+06
   -8.59   400.000    1.449E+01    1.9189100E+06    7.0193850E-09    5.4678218E-09    1.9189100E+06    1.6208541E-08    1.9189100E+06
   -8.58   400.000    1.448E+01    1.7993534E+06    6.6053384E-09    5.2102731E-09    1.7993534E+06    1.6423727E-08    1.7993534E+06
   -8.57   400.000    1.448E+01    1.6960754E+06    6.1499960E-09    4.8984498E-09    1.6960754E+06    1.6514316E-08    1.6960754E+06
   -8.56   400.000    1.447E+01    1.6178110E+06    5.6714248E-09    4.5435604E-09    1.6178110E+06    1.6405104E-08    1.6178110E+06
   -8.55   400.000    1.446E+01    1.5685338E+06    5.1799315E-09    4.1540395E-09    1.5685338E+06    1.6035165E-08    1.5685338E+06
   -8.54   400.000    1.445E+01    1.5483674E+06    4.6843474E-09    3.7403714E-09    1.5483674E+06    1.5388102E-08    1.5483674E+06
   -8.53   400.000    1.444E+01    1.5546467E+06    4.1976562E-09    3.3190827E-09    1.5546467E+06    1.4505845E-08    1.5546467E+06
   -8.52   400.000    1.444E+01    1.5825185E+06    3.7383362E-09    2.9127646E-09    1.5825185E+06    1.3477516E-08    1.5825185E+06
   -8.51   400.000    1.443E+01    1.6251008E+06    3.3270676E-09    2.5459066E-09    1.6251008E+06    1.2409049E-08    1.6251008E+06
   -8.50   400.000    1.442E+01    1.6736684E+06    2.9810359E-09    2.2387195E-09    1.6736684E+06    1.1388862E-08    1.6736684E+06
   -8.49   400.000    1.441E+01    1.7183540E+06    2.7085619E-09    2.0016564E-09    1.7183540E+06    1.0464320E-08    1.7183540E+06
   -8.48   400.000    1.441E+01    1.7495397E+06    2.5059380E-09    1.8325073E-09    1.7495397E+06    9.6361104E-09    1.7495397E+06
   -8.47   400.000    1.440E+01    1.7596867E+06    2.3574566E-09    1.7168903E-09    1.7596867E+06    8.8693776E-09    1.7596867E+06
   -8.46   400.000    1.439E+01    1.7450170E+06    2.2389844E-09    1.6321120E-09    1.7450170E+06    8.1150475E-09    1.7450170E+06
   -8.45   400.000    1.439E+01    1.7063559E+06    2.1244447E-09    1.5534319E-09    1.7063559E+06    7.3325253E-09    1.7063559E+06
   -8.44   400.000    1.438E+01    1.6487064E+06    1.9931086E-09    1.4607231E-09    1.6487064E+06    6.5055434E-09    1.6487064E+06
   -8.43   400.000    1.437E+01    1.5796858E+06    1.8347581E-09    1.3430925E-09    1.5796858E+06    5.6462845E-09    1.5796858E+06
   -8.42   400.000    1.437E+01    1.5074789E+06    1.6506915E-09    1.1999254E-09    1.5074789E+06    4.7882032E-09    1.5074789E+06
   -8.41   400.000    1.436E+01    1.4391254E+06    1.4507773E-09    1.0386229E-09    1.4391254E+06    3.9727497E-09    1.4391254E+06
   -8.40   400.000    1.435E+01    1.3797058E+06    1.2486121E-09    8.7069574E-10    1.3797058E+06    3.2367411E-09    1.3797058E+06
   -8.39   400.000    1.435E+01    1.3325377E+06    1.0571437E-09    7.0803116E-10    1.3325377E+06    2.6049358E-09    1.3325377E+06
   -8.38   400.000    1.434E+01    1.3000536E+06    8.8617208E-10    5.6039649E-10    1.3000536E+06    2.0885574E-09    1.3000536E+06
   -8.37   400.000    1.433E+01    1.2847575E+06    7.4191403E-10    4.3438894E-10    1.2847575E+06    1.6877716E-09    1.2847575E+06
   -8.36   400.000    1.432E+01    1.2896381E+06    6.2798397E-10    3.3354424E-10    1.2896381E+06    1.3954973E-09    1.2896381E+06
   -8.35   400.000    1.432E+01    1.3177127E+06    5.4683789E-10    2.5914774E-10    1.3177127E+06    1.2007619E-09    1.3177127E+06
   -8.34   400.000    1.431E+01    1.3708455E+06    5.0085852E-10    2.1128135E-10    1.3708455E+06    1.0908980E-09    1.3708455E+06
   -8.33   400.000    1.430E+01    1.4483838E+06    4.9263840E-10    1.8971447E-10    1.4483838E+06    1.0525796E-09    1.4483838E+06
   -8.32   400.000    1.429E+01    1.5462499E+06    5.2445314E-10    1.9440415E-10    1.5462499E+06    1.0720177E-09    1.5462499E+06
   -8.31   400.000    1.428E+01    1.6569379E+06    5.9727405E-10    2.2557457E-10    1.6569379E+06    1.1348009E-09    1.6569379E+06
   -8.30   400.000    1.427E+01    1.7705622E+06    7.0987649E-10    2.8351642E-10    1.7705622E+06    1.2259516E-09    1.7705622E+06
   -8.29   400.000    1.426E+01    1.8768224E+06    8.5857318E-10    3.6829254E-10    1.8768224E+06    1.3306427E-09    1.8768224E+06
   -8.28   400.000    1.425E+01    1.9674591E+06    1.0377680E-09    4.7943175E-10    1.9674591E+06    1.4355677E-09    1.9674591E+06
   -8.27   400.000    1.424E+01    2.0384333E+06    1.2409808E-09    6.1552496E-10    2.0384333E+06    1.5303537E-09    2.0384333E+06
   -8.26   400.000    1.422E+01    2.0908459E+06    1.4615887E-09    7.7357907E-10    2.0908459E+06    1.6081233E-09    2.0908459E+06
   -8.25   400.000    1.421E+01    2.1299394E+06    1.6926824E-09    9.4818164E-10    2.1299394E+06    1.6647743E-09    2.1299394E+06
   -8.24   400.000    1.419E+01    2.1624619E+06    1.9262341E-09    1.1309531E-09    2.1624619E+06    1.6975464E-09    2.1624619E+06
   -8.23   400.000    1.418E+01    2.1936528E+06    2.1526845E-09    1.3111129E-09    2.1936528E+06    1.7041784E-09    2.1936528E+06
   -8.22   400.000    1.416E+01    2.2253743E+06    2.3622153E-09    1.4777935E-09    2.2253743E+06    1.6836387E-09    2.2253743E+06
   -8.21   400.000    1.415E+01    2.2562188E+06    2.5479347E-09    1.6237771E-09    2.2562188E+06    1.6381459E-09    2.2562188E+06
   -8.20   400.000    1.413E+01    2.2832958E+06    2.7095825E-09    1.7490736E-09    2.2832958E+06    1.5750141E-09    2.2832958E+06
   -8.19   400.000    1.412E+01    2.3045726E+06    2.8555234E-09    1.8622886E-09    2.3045726E+06    1.5068652E-09    2.3045726E+06
   -8.18   400.000    1.410E+01    2.3205407E+06    3.0016090E-09    1.9787199E-09    2.3205407E+06    1.4500188E-09    2.3205407E+06
   -8.17   400.000    1.409E+01    2.3344868E+06    3.1673127E-09    2.1159699E-09    2.3344868E+06    1.4222065E-09    2.3344868E+06
   -8.16   400.000    1.407E+01    2.3513556E+06    3.3708049E-09    2.2890508E-09    2.3513556E+06    1.4408735E-09    2.3513556E+06
   -8.15   400.000    1.405E+01    2.3757567E+06    3.6244772E-09    2.5066749E-09    2.3757567E+06    1.5221811E-09    2.3757567E+06
   -8.14   400.000    1.404E+01    2.4099464E+06    3.9314578E-09    2.7692111E-09    2.4099464E+06    1.6796523E-09    2.4099464E+06
   -8.13   400.000    1.402E+01    2.4525707E+06    4.2830464E-09    3.0678312E-09    2.4525707E+06    1.9214074E-09    2.4525707E+06
   -8.12   400.000    1.400E+01    2.4986455E+06    4.6572650E-09    3.3843314E-09    2.4986455E+06    2.2462358E-09    2.4986455E+06
   -8.11   400.000    1.399E+01    2.5408133E+06    5.0195059E-09    3.6918496E-09    2.5408133E+06    2.6404047E-09    2.5408133E+06
   -8.10   400.000    1.397E+01    2.5715109E+06    5.3266937E-09    3.9574824E-09    2.5715109E+06    3.0779431E-09    2.5715109E+06
   -8.09   400.000    1.395E+01    2.5853664E+06    5.5355963E-09    4.1477265E-09    2.5853664E+06    3.5263778E-09    2.5853664E+06
   -8.08   400.000    1.393E+01    2.5809484E+06    5.6137136E-09    4.2361970E-09    2.5809484E+06    3.9574503E-09    2.5809484E+06
   -8.07   400.000    1.392E+01    2.5611017E+06    5.5487044E-09    4.2109649E-09    2.5611017E+06    4.3591271E-09    2.5611017E+06
   -8.06   400.000    1.390E+01    2.5316720E+06    5.3518109E-09    4.0779594E-09    2.5316720E+06    4.7432804E-09    2.5316720E+06
   -8.05   400.000    1.388E+01    2.4992573E+06    5.0534017E-09    3.8585169E-09    2.4992573E+06    5.1445882E-09    2.4992574E+06
   -8.04   400.000    1.386E+01    2.4691483E+06    4.6929848E-09    3.5823588E-09    2.4691483E+06    5.6102118E-09    2.4691484E+06
   -8.03   400.000    1.385E+01    2.4443912E+06    4.3085873E-09    3.2794992E-09    2.4443912E+06    6.1841222E-09    2.4443914E+06
   -8.02   400.000    1.383E+01    2.4260836E+06    3.9296467E-09    2.9743381E-09    2.4260836E+06    6.8920158E-09    2.4260839E+06
   -8.01   400.000    1.381E+01    2.4142615E+06    3.5748304E-09    2.6833427E-09    2.4142615E+06    7.7320838E-09    2.4142619E+06
   -8.00   400.000    1.379E+01    2.4086046E+06    3.2538817E-09    2.4159761E-09    2.4086046E+06    8.6746901E-09    2.4086051E+06
   -7.99   400.000    1.377E+01    2.4086368E+06    2.9716900E-09    2.1776772E-09    2.4086368E+06    9.6714244E-09    2.4086375E+06
   -7.98   400.000    1.376E+01    2.4136364E+06    2.7327783E-09    1.9734596E-09    2.4136364E+06    1.0671345E-08    2.4136373E+06
   -7.97   400.000    1.374E+01    2.4226626E+06    2.5446223E-09    1.8107193E-09    2.4226626E+06    1.1639611E-08    2.4226638E+06
   -7.96   400.000    1.372E+01    2.4348912E+06    2.4186593E-09    1.7002006E-09    2.4348912E+06    1.2572033E-08    2.4348928E+06
   -7.95   400.000    1.370E+01    2.4500842E+06    2.3687029E-09    1.6548220E-09    2.4500842E+06    1.3499697E-08    2.4500864E+06
   -7.94   400.000    1.368E+01    2.4688137E+06    2.4074174E-09    1.6868634E-09    2.4688137E+06    1.4481286E-08    2.4688166E+06
   -7.93   400.000    1.365E+01    2.4921807E+06    2.5419954E-09    1.8044000E-09    2.4921807E+06    1.5585478E-08    2.4921845E+06
   -7.92   400.000    1.363E+01    2.5211242E+06    2.7701920E-09    2.0078448E-09    2.5211242E+06    1.6869586E-08    2.5211293E+06
   -7.91   400.000    1.361E+01    2.5557207E+06    3.0777960E-09    2.2874084E-09    2.5557207E+06    1.8361712E-08    2.5557276E+06
   -7.90   400.000    1.359E+01    2.5949169E+06    3.4385568E-09    2.6223513E-09    2.5949169E+06    2.0052213E-08    2.5949261E+06
   -7.89   400.000    1.357E+01    2.6368780E+06    3.8171683E-09    2.9827684E-09    2.6368780E+06    2.1896867E-08    2.6368903E+06
   -7.88   400.000    1.355E+01    2.6797402E+06    4.1749602E-09    3.3339910E-09    2.6797402E+06    2.3829305E-08    2.6797567E+06
   -7.87   400.000    1.353E+01    2.7222655E+06    4.4768361E-09    3.6426646E-09    2.7222655E+06    2.5775336E-08    2.7222875E+06
   -7.86   400.000    1.350E+01    2.7639452E+06    4.6974030E-09    3.8827307E-09    2.7639452E+06    2.7660160E-08    2.7639747E+06
   -7.85   400.000    1.348E+01    2.8044626E+06    4.8245469E-09    4.0395083E-09    2.8044626E+06    2.9404058E-08    2.8045019E+06
   -7.84   400.000    1.346E+01    2.8428422E+06    4.8598187E-09    4.1109656E-09    2.8428422E+06    3.0911584E-08    2.8428947E+06
   -7.83   400.000    1.343E+01    2.8768020E+06    4.8163318E-09    4.1065628E-09    2.8768020E+06    3.2067203E-08    2.8768722E+06
   -7.82   400.000    1.341E+01    2.9027181E+06    4.7155768E-09    4.0447801E-09    2.9027181E+06    3.2749587E-08    2.9028119E+06
   -7.81   400.000    1.338E+01    2.9163177E+06    4.5840803E-09    3.9500167E-09    2.9163177E+06    3.2865236E-08    2.9164429E+06
   -7.80   400.000    1.336E+01    2.9138806E+06    4.4497173E-09    3.8485954E-09    2.9138806E+06    3.2386293E-08    2.9140477E+06
   -7.79   400.000    1.333E+01    2.8934771E+06    4.3371901E-09    3.7636285E-09    2.8934771E+06    3.1369992E-08    2.8937001E+06
   -7.78   400.000    1.330E+01    2.8557367E+06    4.2633896E-09    3.7099724E-09    2.8557367E+06    2.9946672E-08    2.8560340E+06
   -7.77   400.000    1.327E+01    2.8038351E+06    4.2347435E-09    3.6918276E-09    2.8038351E+06    2.8283162E-08    2.8042313E+06
   -7.76   400.000    1.324E+01    2.7427006E+06    4.2483371E-09    3.7047999E-09    2.7427006E+06    2.6542336E-08    2.7432279E+06
   -7.75   400.000    1.321E+01    2.6776961E+06    4.2963615E-09    3.7415227E-09    2.6776961E+06    2.4857118E-08    2.6783972E+06
   -7.74   400.000    1.318E+01    2.6131756E+06    4.3710582E-09    3.7973982E-09    2.6131756E+06    2.3323456E-08    2.6141059E+06
   -7.73   400.000    1.315E+01    2.5513423E+06    4.4668997E-09    3.8728070E-09    2.5513423E+06    2.2004775E-08    2.5525739E+06
   -7.72   400.000    1.311E+01    2.4917956E+06    4.5788693E-09    3.9705810E-09    2.4917956E+06    2.0938091E-08    2.4934211E+06
   -7.71   400.000    1.308E+01    2.4320013E+06    4.6988201E-09    4.0908747E-09    2.4320013E+06    2.0137217E-08    2.4341382E+06
   -7.70   400.000    1.304E+01    2.3686420E+06    4.8134906E-09    4.2273197E-09    2.3686420E+06    1.9594568E-08    2.3714366E+06
   -7.69   400.000    1.300E+01    2.2994385E+06    4.9065421E-09    4.3673251E-09    2.2994385E+06    1.9285241E-08    2.3030694E+06
   -7.68   400.000    1.296E+01    2.2247558E+06    4.9640370E-09    4.4965597E-09    2.2247558E+06    1.9175015E-08    2.2294343E+06
   -7.67   400.000    1.292E+01    2.1483179E+06    4.9804253E-09    4.6051177E-09    2.1483179E+06    1.9230392E-08    2.1542844E+06
   -7.66   400.000    1.288E+01    2.0767291E+06    4.9618481E-09    4.6921095E-09    2.0767291E+06    1.9426672E-08    2.0842433E+06
   -7.65   400.000    1.283E+01    2.0180284E+06    4.9250376E-09    4.7663913E-09    2.0180284E+06    1.9750015E-08    2.0273512E+06
   -7.64   400.000    1.279E+01    1.9798503E+06    4.8919826E-09    4.8428893E-09    1.9798503E+06    2.0191235E-08    1.9912179E+06
   -7.63   400.000    1.274E+01    1.9677655E+06    4.8819784E-09    4.9356662E-09    1.9677655E+06    2.0732286E-08    1.9813577E+06
   -7.62   400.000    1.269E+01    1.9841604E+06    4.9036252E-09    5.0502078E-09    1.9841604E+06    2.1330502E-08    2.0000681E+06
   -7.61   400.000    1.265E+01    2.0278269E+06    4.9497247E-09    5.1780781E-09    2.0278269E+06    2.1908666E-08    2.0460280E+06
   -7.60   400.000    1.260E+01    2.0943229E+06    4.9974835E-09    5.2966337E-09    2.0943229E+06    2.2358415E-08    2.1146735E+06
   -7.59   400.000    1.254E+01    2.1770274E+06    5.0146919E-09    5.3746647E-09    2.1770274E+06    2.2559609E-08    2.1992729E+06
   -7.58   400.000    1.249E+01    2.2685956E+06    4.9699995E-09    5.3821486E-09    2.2685956E+06    2.2410672E-08    2.2923993E+06
   -7.57   400.000    1.244E+01    2.3623447E+06    4.8432857E-09    5.3001229E-09    2.3623447E+06    2.1858464E-08    2.3873253E+06
   -7.56   400.000    1.238E+01    2.4531149E+06    4.6319162E-09    5.1265207E-09    2.4531149E+06    2.0915086E-08    2.4788816E+06
   -7.55   400.000    1.233E+01    2.5374272E+06    4.3508542E-09    4.8760896E-09    2.5374272E+06    1.9654987E-08    2.5636067E+06
   -7.54   400.000    1.228E+01    2.6131388E+06    4.0278393E-09    4.5757375E-09    2.6131388E+06    1.8195583E-08    2.6393926E+06
   -7.53   400.000    1.222E+01    2.6789994E+06    3.6968479E-09    4.2584776E-09    2.6789994E+06    1.6671630E-08    2.7050337E+06
   -7.52   400.000    1.216E+01    2.7343725E+06    3.3926301E-09    3.9585157E-09    2.7343725E+06    1.5213414E-08    2.7599407E+06
   -7.51   400.000    1.211E+01    2.7790640E+06    3.1472171E-09    3.7080890E-09    2.7790640E+06    1.3933212E-08    2.8039621E+06
   -7.50   400.000    1.205E+01    2.8130753E+06    2.9877293E-09    3.5353139E-09    2.8130753E+06    1.2918816E-08    2.8371327E+06
   -7.49   400.000    1.200E+01    2.8362979E+06    2.9345352E-09    3.4622425E-09    2.8362979E+06    1.2230773E-08    2.8593723E+06
   -7.48   400.000    1.194E+01    2.8484206E+06    2.9994964E-09    3.5030145E-09    2.8484206E+06    1.1901095E-08    2.8703993E+06
   -7.47   400.000    1.189E+01    2.8492332E+06    3.1848789E-09    3.6626112E-09    2.8492332E+06    1.1933136E-08    2.8700389E+06
   -7.46   400.000    1.183E+01    2.8391241E+06    3.4838076E-09    3.9368753E-09    2.8391241E+06    1.2303347E-08    2.8587131E+06
   -7.45   400.000    1.177E+01    2.8192893E+06    3.8825886E-09    4.3140677E-09    2.8192893E+06    1.2965375E-08    2.8376381E+06
   -7.44   400.000    1.172E+01    2.7913544E+06    4.3640933E-09    4.7774596E-09    2.7913544E+06    1.3856017E-08    2.8084394E+06
   -7.43   400.000    1.166E+01    2.7566125E+06    4.9104592E-09    5.3077238E-09    2.7566125E+06    1.4901715E-08    2.7723947E+06
   -7.42   400.000    1.160E+01    2.7154407E+06    5.5034161E-09    5.8837429E-09    2.7154407E+06    1.6024006E-08    2.7298646E+06
   -7.41   400.000    1.155E+01    2.6673548E+06    6.1217146E-09    6.4811546E-09    2.6673548E+06    1.7142752E-08    2.6803621E+06
   -7.40   400.000    1.149E+01    2.6116871E+06    6.7368267E-09    7.0692865E-09    2.6116871E+06    1.8177091E-08    2.6232349E+06
   -7.39   400.000    1.143E+01    2.5484186E+06    7.3094398E-09    7.6084673E-09    2.5484186E+06    1.9045718E-08    2.5584961E+06
   -7.38   400.000    1.137E+01    2.4786388E+06    7.7896601E-09    8.0503635E-09    2.4786388E+06    1.9669693E-08    2.4872763E+06
   -7.37   400.000    1.131E+01    2.4044342E+06    8.1229833E-09    8.3434432E-09    2.4044342E+06    1.9981080E-08    2.4117039E+06
   -7.36   400.000    1.126E+01    2.3283966E+06    8.2618833E-09    8.4436625E-09    2.3283966E+06    1.9937831E-08    2.3344073E+06
   -7.35   400.000    1.120E+01    2.2530827E+06    8.1797201E-09    8.3273790E-09    2.2530827E+06    1.9540140E-08    2.2579700E+06
   -7.34   400.000    1.114E+01    2.1806315E+06    7.8811690E-09    8.0009905E-09    2.1806315E+06    1.8839465E-08    2.1845452E+06
   -7.33   400.000    1.109E+01    2.1125496E+06    7.4037814E-09    7.5021401E-09    2.1125496E+06    1.7932963E-08    2.1156422E+06
   -7.32   400.000    1.104E+01    2.0495762E+06    6.8092802E-09    6.8911929E-09    2.0495762E+06    1.6943226E-08    2.0519923E+06
   -7.31   400.000    1.098E+01    1.9915679E+06    6.1683903E-09    6.2366905E-09    1.9915679E+06    1.5990951E-08    1.9934378E+06
   -7.30   400.000    1.093E+01    1.9374399E+06    5.5457689E-09    5.6011092E-09    1.9374399E+06    1.5171093E-08    1.9388761E+06
   -7.29   400.000    1.088E+01    1.8852668E+06    4.9904510E-09    5.0320518E-09    1.8852668E+06    1.4539865E-08    1.8863633E+06
   -7.28   400.000    1.083E+01    1.8326161E+06    4.5336857E-09    4.5605367E-09    1.8326161E+06    1.4113950E-08    1.8334491E+06
   -7.27   400.000    1.078E+01    1.7770631E+06    4.1927013E-09    4.2048129E-09    1.7770631E+06    1.3878481E-08    1.7776937E+06
   -7.26   400.000    1.074E+01    1.7167197E+06    3.9772667E-09    3.9765821E-09    1.7167197E+06    1.3798783E-08    1.7171957E+06
   -7.25   400.000    1.069E+01    1.6505961E+06    3.8958735E-09    3.8865714E-09    1.6505961E+06    1.3832270E-08    1.6509546E+06
   -7.24   400.000    1.065E+01    1.5787215E+06    3.9591185E-09    3.9472398E-09    1.5787215E+06    1.3939167E-08    1.5789911E+06
   -7.23   400.000    1.061E+01    1.5020602E+06    4.1788899E-09    4.1714206E-09    1.5020602E+06    1.4091805E-08    1.5022626E+06
   -7.22   400.000    1.057E+01    1.4222891E+06    4.5633507E-09    4.5670189E-09    1.4222891E+06    1.4281467E-08    1.4224410E+06
   -7.21   400.000    1.053E+01    1.3414766E+06    5.1095056E-09    5.1295686E-09    1.3414766E+06    1.4520414E-08    1.3415905E+06
   -7.20   400.000    1.050E+01    1.2616892E+06    5.7965024E-09    5.8357562E-09    1.2616892E+06    1.4836789E-08    1.2617746E+06
   -7.19   400.000    1.047E+01    1.1846004E+06    6.5826783E-09    6.6408748E-09    1.1846004E+06    1.5262053E-08    1.1846644E+06
   -7.18   400.000    1.043E+01    1.1112087E+06    7.4077243E-09    7.4815427E-09    1.1112087E+06    1.5813569E-08    1.1112566E+06
   -7.17   400.000    1.040E+01    1.0417505E+06    8.1993220E-09    8.2829691E-09    1.0417505E+06    1.6477071E-08    1.0417864E+06
   -7.16   400.000    1.037E+01    9.7581177E+05    8.8822215E-09    8.9685765E-09    9.7581177E+05    1.7194420E-08    9.7583866E+05
   -7.15   400.000    1.035E+01    9.1256814E+05    9.3874467E-09    9.4694689E-09    9.1256814E+05    1.7861846E-08    9.1258830E+05
   -7.14   400.000    1.032E+01    8.5106915E+05    9.6602853E-09    9.7322790E-09    8.5106915E+05    1.8342936E-08    8.5108428E+05
   -7.13   400.000    1.030E+01    7.9050777E+05    9.6672048E-09    9.7256004E-09    7.9050777E+05    1.8497407E-08    7.9051916E+05
   -7.12   400.000    1.027E+01    7.3044043E+05    9.4020139E-09    9.4455309E-09    7.3044043E+05    1.8219707E-08    7.3044903E+05
   -7.11   400.000    1.025E+01    6.7091885E+05    8.8896522E-09    8.9189488E-09    6.7091885E+05    1.7473370E-08    6.7092539E+05
   -7.10   400.000    1.023E+01    6.1249505E+05    8.1842423E-09    8.2012941E-09    6.1249505E+05    1.6305087E-08    6.1250008E+05
   -7.09   400.000    1.021E+01    5.5609329E+05    7.3595159E-09    7.3669721E-09    5.5609329E+05    1.4831252E-08    5.5609725E+05
   -7.08   400.000    1.019E+01    5.0278995E+05    6.4939302E-09    6.4946125E-09    5.0278995E+05    1.3204097E-08    5.0279316E+05
   -7.07   400.000    1.017E+01    4.5357137E+05    5.6559060E-09    5.6525105E-09    4.5357137E+05    1.1573516E-08    4.5357411E+05
   -7.06   400.000    1.015E+01    4.0914348E+05    4.8940826E-09    4.8890703E-09    4.0914348E+05    1.0058920E-08    4.0914598E+05
   -7.05   400.000    1.013E+01    3.6984994E+05    4.2343977E-09    4.2300254E-09    3.6984994E+05    8.7369052E-09    3.6985240E+05
   -7.04   400.000    1.011E+01    3.3571664E+05    3.6828327E-09    3.6812704E-09    3.3571664E+05    7.6427510E-09    3.3571927E+05
   -7.03   400.000    1.009E+01    3.0658984E+05    3.2313247E-09    3.2348080E-09    3.0658984E+05    6.7802328E-09    3.0659287E+05
   -7.02   400.000    1.008E+01    2.8230385E+05    2.8645039E-09    2.8754814E-09    2.8230385E+05    6.1344735E-09    2.8230751E+05
   -7.01   400.000    1.006E+01    2.6281991E+05    2.5657201E-09    2.5869610E-09    2.6281991E+05    5.6842619E-09    2.6282450E+05
   -7.00   400.000    1.004E+01    2.4830487E+05    2.3215279E-09    2.3561730E-09    2.4830487E+05    5.4118621E-09    2.4831075E+05
   -6.99   400.000    1.002E+01    2.3913847E+05    2.1241796E-09    2.1757272E-09    2.3913847E+05    5.3092951E-09    2.3914607E+05
   -6.98   400.000    9.993E+00    2.3584651E+05    1.9719532E-09    2.0441774E-09    2.3584651E+05    5.3807418E-09    2.3585640E+05
   -6.97   400.000    9.968E+00    2.3896754E+05    1.8676311E-09    1.9644293E-09    2.3896754E+05    5.6415651E-09    2.3898038E+05
   -6.96   400.000    9.941E+00    2.4887986E+05    1.8160448E-09    1.9412139E-09    2.4887986E+05    6.1154124E-09    2.4889646E+05
   -6.95   400.000    9.910E+00    2.6563311E+05    1.8218662E-09    1.9788264E-09    2.6563311E+05    6.8313448E-09    2.6565443E+05
   -6.94   400.000    9.875E+00    2.8883145E+05    1.8885108E-09    2.0800252E-09    2.8883145E+05    7.8225398E-09    2.8885854E+05
   -6.93   400.000    9.836E+00    3.1760260E+05    2.0183399E-09    2.2462933E-09    3.1760260E+05    9.1270165E-09    3.1763656E+05
   -6.92   400.000    9.793E+00    3.5066228E+05    2.2137428E-09    2.4790263E-09    3.5066228E+05    1.0789522E-08    3.5070415E+05
   -6.91   400.000    9.744E+00    3.8645393E+05    2.4783855E-09    2.7808800E-09    3.8645393E+05    1.2862668E-08    3.8650455E+05
   -6.90   400.000    9.689E+00    4.2332130E+05    2.8178921E-09    3.1564966E-09    4.2332130E+05    1.5404926E-08    4.2338112E+05
   -6.89   400.000    9.629E+00    4.5967008E+05    3.2393651E-09    3.6120247E-09    4.5967008E+05    1.8473287E-08    4.5973906E+05
   -6.88   400.000    9.562E+00    4.9409287E+05    3.7493916E-09    4.1531311E-09    4.9409287E+05    2.2108983E-08    4.9417039E+05
   -6.87   400.000    9.488E+00    5.2545207E+05    4.3505105E-09    4.7815239E-09    5.2545207E+05    2.6315725E-08    5.2553705E+05
   -6.86   400.000    9.406E+00    5.5292488E+05    5.0365990E-09    5.4904116E-09    5.5292488E+05    3.1032035E-08    5.5301595E+05
   -6.85   400.000    9.317E+00    5.7601726E+05    5.7882920E-09    6.2599521E-09    5.7601726E+05    3.6103518E-08    5.7611300E+05
   -6.84   400.000    9.220E+00    5.9455829E+05    6.5702291E-09    7.0544676E-09    5.9455829E+05    4.1266619E-08    5.9465745E+05
   -6.83   400.000    9.115E+00    6.0868878E+05    7.3321471E-09    7.8235006E-09    6.0868878E+05    4.6158713E-08    6.0879047E+05
   -6.82   400.000    9.002E+00    6.1885091E+05    8.0150001E-09    8.5079466E-09    6.1885091E+05    5.0364815E-08    6.1895466E+05
   -6.81   400.000    8.882E+00    6.2577587E+05    8.5612937E-09    9.0504389E-09    6.2577587E+05    5.3496624E-08    6.2588175E+05
   -6.80   400.000    8.755E+00    6.3046706E+05    8.9265885E-09    9.4068869E-09    6.3046706E+05    5.5281315E-08    6.3057568E+05
   -6.79   400.000    8.624E+00    6.3418207E+05    9.0883151E-09    9.5552881E-09    6.3418207E+05    5.5628013E-08    6.3429453E+05
   -6.78   400.000    8.489E+00    6.3841153E+05    9.0494800E-09    9.4994242E-09    6.3841153E+05    5.4647607E-08    6.3852914E+05
   -6.77   400.000    8.352E+00    6.4483178E+05    8.8374283E-09    9.2676290E-09    6.4483178E+05    5.2621719E-08    6.4495573E+05
   -6.76   400.000    8.215E+00    6.5519043E+05    8.4995005E-09    8.9084292E-09    6.5519043E+05    4.9935885E-08    6.5532128E+05
   -6.75   400.000    8.078E+00    6.7109335E+05    8.0973176E-09    8.4847261E-09    6.7109335E+05    4.7000688E-08    6.7123056E+05
   -6.74   400.000    7.941E+00    6.9370973E+05    7.7003129E-09    8.0671314E-09    6.9370973E+05    4.4181975E-08    6.9385140E+05
   -6.73   400.000    7.805E+00    7.2347588E+05    7.3781289E-09    7.7261555E-09    7.2347588E+05    4.1752082E-08    7.2361875E+05
   -6.72   400.000    7.668E+00    7.5991388E+05    7.1912309E-09    7.5227140E-09    7.5991388E+05    3.9864558E-08    7.6005379E+05
   -6.71   400.000    7.532E+00    8.0165547E+05    7.1798638E-09    7.4971257E-09    8.0165547E+05    3.8549329E-08    8.0178803E+05
   -6.70   400.000    7.394E+00    8.4668667E+05    7.3533044E-09    7.6584887E-09    8.4668667E+05    3.7724341E-08    8.4680805E+05
   -6.69   400.000    7.255E+00    8.9274942E+05    7.6835191E-09    7.9784268E-09    8.9274942E+05    3.7221238E-08    8.9285696E+05
   -6.68   400.000    7.115E+00    9.3778439E+05    8.1082106E-09    8.3941248E-09    9.3778439E+05    3.6823842E-08    9.3787678E+05
   -6.67   400.000    6.974E+00    9.8028167E+05    8.5460358E-09    8.8234839E-09    9.8028167E+05    3.6317104E-08    9.8035895E+05
   -6.66   400.000    6.833E+00    1.0194305E+06    8.9211889E-09    9.1897157E-09    1.0194305E+06    3.5539423E-08    1.0194937E+06
   -6.65   400.000    6.692E+00    1.0550281E+06    9.1883410E-09    9.4464331E-09    1.0550281E+06    3.4424837E-08    1.0550788E+06
   -6.64   400.000    6.554E+00    1.0871994E+06    9.3469355E-09    9.5921992E-09    1.0871994E+06    3.3019641E-08    1.0872394E+06
   -6.63   400.000    6.418E+00    1.1160492E+06    9.4387964E-09    9.6683697E-09    1.1160492E+06    3.1465899E-08    1.1160804E+06
   -6.62   400.000    6.287E+00    1.1413849E+06    9.5318970E-09    9.7429705E-09    1.1413849E+06    2.9958815E-08    1.1414089E+06
   -6.61   400.000    6.160E+00    1.1626236E+06    9.6993903E-09    9.8896970E-09    1.1626236E+06    2.8695650E-08    1.1626420E+06
   -6.60   400.000    6.039E+00    1.1789438E+06    1.0002635E-08    1.0170833E-08    1.1789438E+06    2.7833594E-08    1.1789579E+06
   -6.59   400.000    5.922E+00    1.1896553E+06    1.0481702E-08    1.0627658E-08    1.1896553E+06    2.7465122E-08    1.1896660E+06
   -6.58   400.000    5.810E+00    1.1946509E+06    1.1151430E-08    1.1276441E-08    1.1946509E+06    2.7609391E-08    1.1946590E+06
   -6.57   400.000    5.702E+00    1.1947197E+06    1.1998870E-08    1.2105833E-08    1.1947197E+06    2.8212891E-08    1.1947257E+06
   -6.56   400.000    5.599E+00    1.1915325E+06    1.2979472E-08    1.3072933E-08    1.1915325E+06    2.9153241E-08    1.1915371E+06
   -6.55   400.000    5.499E+00    1.1872803E+06    1.4013042E-08    1.4099046E-08    1.1872803E+06    3.0244849E-08    1.1872837E+06
   -6.54   400.000    5.403E+00    1.1841565E+06    1.4984237E-08    1.5069926E-08    1.1841565E+06    3.1251215E-08    1.1841591E+06
   -6.53   400.000    5.310E+00    1.1839634E+06    1.5753827E-08    1.5846850E-08    1.1839634E+06    3.1911797E-08    1.1839653E+06
   -6.52   400.000    5.221E+00    1.1880038E+06    1.6184036E-08    1.6291899E-08    1.1880038E+06    3.1987613E-08    1.1880053E+06
   -6.51   400.000    5.136E+00    1.1971971E+06    1.6173546E-08    1.6303031E-08    1.1971971E+06    3.1317887E-08    1.1971982E+06
   -6.50   400.000    5.054E+00    1.2121953E+06    1.5688985E-08    1.5845697E-08    1.2121953E+06    2.9866657E-08    1.2121961E+06
   -6.49   400.000    4.978E+00    1.2333130E+06    1.4777205E-08    1.4965251E-08    1.2333130E+06    2.7735390E-08    1.2333136E+06
   -6.48   400.000    4.906E+00    1.2602496E+06    1.3550934E-08    1.3772735E-08    1.2602496E+06    2.5132058E-08    1.2602500E+06
   -6.47   400.000    4.839E+00    1.2917607E+06    1.2154534E-08    1.2410765E-08    1.2917607E+06    2.2310027E-08    1.2917611E+06
   -6.46   400.000    4.777E+00    1.3255108E+06    1.0725986E-08    1.1015609E-08    1.3255108E+06    1.9504024E-08    1.3255111E+06
   -6.45   400.000    4.720E+00    1.3583153E+06    9.3697560E-09    9.6901214E-09    1.3583153E+06    1.6886688E-08    1.3583155E+06
   -6.44   400.000    4.668E+00    1.3868504E+06    8.1466706E-09    8.4936777E-09    1.3868504E+06    1.4554348E-08    1.3868505E+06
   -6.43   400.000    4.620E+00    1.4086816E+06    7.0784475E-09    7.4468500E-09    1.4086816E+06    1.2536823E-08    1.4086817E+06
   -6.42   400.000    4.576E+00    1.4232222E+06    6.1602945E-09    6.5441855E-09    1.4232222E+06    1.0819623E-08    1.4232223E+06
   -6.41   400.000    4.536E+00    1.4321507E+06    5.3746171E-09    5.7680267E-09    1.4321507E+06    9.3672438E-09    1.4321508E+06
   -6.40   400.000    4.500E+00    1.4390179E+06    4.7009422E-09    5.0983456E-09    1.4390179E+06    8.1402801E-09    1.4390179E+06
   -6.39   400.000    4.466E+00    1.4481636E+06    4.1203401E-09    4.5168659E-09    1.4481636E+06    7.1040193E-09    1.4481637E+06
   -6.38   400.000    4.436E+00    1.4633966E+06    3.6156453E-09    4.0069283E-09    1.4633966E+06    6.2301797E-09    1.4633967E+06
   -6.37   400.000    4.407E+00    1.4869595E+06    3.1702828E-09    3.5521244E-09    1.4869595E+06    5.4952552E-09    1.4869595E+06
   -6.36   400.000    4.380E+00    1.5191257E+06    2.7680322E-09    3.1361739E-09    1.5191257E+06    4.8784942E-09    1.5191258E+06
   -6.35   400.000    4.355E+00    1.5584878E+06    2.3944302E-09    2.7447065E-09    1.5584878E+06    4.3609444E-09    1.5584878E+06
   -6.34   400.000    4.332E+00    1.6027161E+06    2.0390494E-09    2.3679689E-09    1.6027161E+06    3.9254945E-09    1.6027161E+06
   -6.33   400.000    4.309E+00    1.6494000E+06    1.6973559E-09    2.0028674E-09    1.6494000E+06    3.5571504E-09    1.6494000E+06
   -6.32   400.000    4.287E+00    1.6965835E+06    1.3711238E-09    1.6531689E-09    1.6965835E+06    3.2429474E-09    1.6965836E+06
   -6.31   400.000    4.267E+00    1.7428095E+06    1.0670626E-09    1.3276177E-09    1.7428095E+06    2.9715138E-09    1.7428095E+06
   -6.30   400.000    4.246E+00    1.7867823E+06    7.9406832E-10    1.0366861E-09    1.7867823E+06    2.7328076E-09    1.7867823E+06
   -6.29   400.000    4.227E+00    1.8269672E+06    5.6013422E-10    7.8927792E-10    1.8269672E+06    2.5185183E-09    1.8269672E+06
   -6.28   400.000    4.208E+00    1.8614419E+06    3.7011445E-10    5.9065328E-10    1.8614419E+06    2.3230680E-09    1.8614419E+06
   -6.27   400.000    4.190E+00    1.8881422E+06    2.2506339E-10    4.4216342E-10    1.8881422E+06    2.1445489E-09    1.8881422E+06
   -6.26   400.000    4.172E+00    1.9054447E+06    1.2304769E-10    3.4245168E-10    1.9054447E+06    1.9848294E-09    1.9054448E+06
   -6.25   400.000    4.155E+00    1.9128913E+06    6.0688397E-11    2.8916369E-10    1.9128913E+06    1.8485547E-09    1.9128913E+06
   -6.24   400.000    4.138E+00    1.9118067E+06    3.4577161E-11    2.8022055E-10    1.9118067E+06    1.7414514E-09    1.9118067E+06
   -6.23   400.000    4.122E+00    1.9055847E+06    4.2042580E-11    3.1420791E-10    1.9055847E+06    1.6687164E-09    1.9055847E+06
   -6.22   400.000    4.106E+00    1.8994878E+06    8.1200340E-11    3.8998722E-10    1.8994878E+06    1.6340824E-09    1.8994878E+06
   -6.21   400.000    4.090E+00    1.8998745E+06    1.5053577E-10    5.0590051E-10    1.8998745E+06    1.6395978E-09    1.8998745E+06
   -6.20   400.000    4.075E+00    1.9128900E+06    2.4833967E-10    6.5889361E-10    1.9128900E+06    1.6856867E-09    1.9128900E+06
   -6.19   400.000    4.059E+00    1.9428818E+06    3.7221445E-10    8.4374583E-10    1.9428818E+06    1.7710085E-09    1.9428818E+06
   -6.18   400.000    4.044E+00    1.9910575E+06    5.1875137E-10    1.0525857E-09    1.9910575E+06    1.8919947E-09    1.9910575E+06
   -6.17   400.000    4.028E+00    2.0549441E+06    6.8347678E-10    1.2750164E-09    2.0549441E+06    2.0424001E-09    2.0549441E+06
   -6.16   400.000    4.011E+00    2.1289438E+06    8.6124432E-10    1.4992620E-09    2.1289438E+06    2.2134489E-09    2.1289438E+06
   -6.15   400.000    3.994E+00    2.2058421E+06    1.0472301E-09    1.7144969E-09    2.2058421E+06    2.3950107E-09    2.2058421E+06
   -6.14   400.000    3.977E+00    2.2787524E+06    1.2383943E-09    1.9138262E-09    2.2787524E+06    2.5776865E-09    2.2787524E+06
   -6.13   400.000    3.958E+00    2.3428622E+06    1.4347565E-09    2.0966131E-09    2.3428622E+06    2.7549553E-09    2.3428622E+06
   -6.12   400.000    3.939E+00    2.3964568E+06    1.6395043E-09    2.2686666E-09    2.3964568E+06    2.9241340E-09    2.3964568E+06
   -6.11   400.000    3.920E+00    2.4409212E+06    1.8572826E-09    2.4396489E-09    2.4409212E+06    3.0852994E-09    2.4409212E+06
   -6.10   400.000    3.899E+00    2.4797006E+06    2.0909974E-09    2.6185239E-09    2.4797006E+06    3.2384569E-09    2.4797006E+06
   -6.09   400.000    3.878E+00    2.5165562E+06    2.3384795E-09    2.8089880E-09    2.5165562E+06    3.3804965E-09    2.5165562E+06
   -6.08   400.000    3.856E+00    2.5538317E+06    2.5906861E-09    3.0069091E-09    2.5538317E+06    3.5039811E-09    2.5538317E+06
   -6.07   400.000    3.834E+00    2.5915362E+06    2.8325125E-09    3.2008713E-09    2.5915362E+06    3.5990105E-09    2.5915362E+06
   -6.06   400.000    3.811E+00    2.6276253E+06    3.0460310E-09    3.3754706E-09    2.6276253E+06    3.6575366E-09    2.6276253E+06
   -6.05   400.000    3.788E+00    2.6591138E+06    3.2147474E-09    3.5157467E-09    2.6591138E+06    3.6777371E-09    2.6591138E+06
   -6.04   400.000    3.765E+00    2.6831576E+06    3.3270093E-09    3.6107408E-09    2.6831576E+06    3.6658439E-09    2.6831576E+06
   -6.03   400.000    3.742E+00    2.6974161E+06    3.3773645E-09    3.6549142E-09    2.6974161E+06    3.6345716E-09    2.6974161E+06
   -6.02   400.000    3.718E+00    2.6997286E+06    3.3660180E-09    3.6475732E-09    2.6997286E+06    3.5996862E-09    2.6997286E+06
   -6.01   400.000    3.696E+00    2.6878114E+06    3.2975745E-09    3.5915588E-09    2.6878114E+06    3.5772727E-09    2.6878114E+06
   -6.00   400.000    3.673E+00    2.6597382E+06    3.1802290E-09    3.4925066E-09    2.6597382E+06    3.5831663E-09    2.6597382E+06
   -5.99   400.000    3.651E+00    2.6153303E+06    3.0255919E-09    3.3590202E-09    2.6153303E+06    3.6339374E-09    2.6153303E+06
   -5.98   400.000    3.630E+00    2.5577471E+06    2.8483609E-09    3.2029950E-09    2.5577471E+06    3.7476353E-09    2.5577471E+06
   -5.97   400.000    3.609E+00    2.4942089E+06    2.6649931E-09    3.0390504E-09    2.4942089E+06    3.9429815E-09    2.4942089E+06
   -5.96   400.000    3.588E+00    2.4351943E+06    2.4913847E-09    2.8827473E-09    2.4351943E+06    4.2370698E-09    2.4351943E+06
   -5.95   400.000    3.567E+00    2.3923248E+06    2.3404797E-09    2.7482689E-09    2.3923248E+06    4.6425266E-09    2.3923248E+06
   -5.94   400.000    3.547E+00    2.3758030E+06    2.2209381E-09    2.6466773E-09    2.3758030E+06    5.1650033E-09    2.3758030E+06
   -5.93   400.000    3.526E+00    2.3923117E+06    2.1374560E-09    2.5855076E-09    2.3923117E+06    5.8013582E-09    2.3923117E+06
   -5.92   400.000    3.505E+00    2.4438475E+06    2.0925850E-09    2.5697348E-09    2.4438475E+06    6.5386502E-09    2.4438475E+06
   -5.91   400.000    3.483E+00    2.5275145E+06    2.0894286E-09    2.6036456E-09    2.5275145E+06    7.3543679E-09    2.5275145E+06
   -5.90   400.000    3.461E+00    2.6361250E+06    2.1345247E-09    2.6930532E-09    2.6361250E+06    8.2188352E-09    2.6361250E+06
   -5.89   400.000    3.439E+00    2.7594437E+06    2.2402749E-09    2.8473946E-09    2.7594437E+06    9.1007644E-09    2.7594437E+06
   -5.88   400.000    3.415E+00    2.8858625E+06    2.4261859E-09    3.0811658E-09    2.8858625E+06    9.9757778E-09    2.8858625E+06
   -5.87   400.000    3.391E+00    3.0041893E+06    2.7180032E-09    3.4138761E-09    3.0041893E+06    1.0835575E-08    3.0041893E+06
   -5.86   400.000    3.367E+00    3.1051772E+06    3.1440079E-09    3.8676703E-09    3.1051772E+06    1.1693744E-08    3.1051772E+06
   -5.85   400.000    3.343E+00    3.1824813E+06    3.7286746E-09    4.4624416E-09    3.1824813E+06    1.2584500E-08    3.1824813E+06
   -5.84   400.000    3.318E+00    3.2328455E+06    4.4851686E-09    5.2094047E-09    3.2328455E+06    1.3552946E-08    3.2328455E+06
   -5.83   400.000    3.293E+00    3.2555008E+06    5.4087847E-09    6.1048323E-09    3.2555008E+06    1.4638459E-08    3.2555008E+06
   -5.82   400.000    3.268E+00    3.2510694E+06    6.4728154E-09    7.1253435E-09    3.2510694E+06    1.5855435E-08    3.2510694E+06
   -5.81   400.000    3.243E+00    3.2205562E+06    7.6271010E-09    8.2252733E-09    3.2205562E+06    1.7177184E-08    3.2205562E+06
   -5.80   400.000    3.219E+00    3.1649956E+06    8.7990375E-09    9.3364170E-09    3.1649956E+06    1.8528919E-08    3.1649956E+06
   -5.79   400.000    3.194E+00    3.0859284E+06    9.8976864E-09    1.0371304E-08    3.0859284E+06    1.9794287E-08    3.0859284E+06
   -5.78   400.000    3.170E+00    2.9864110E+06    1.0822787E-08    1.1232048E-08    2.9864110E+06    2.0836662E-08    2.9864110E+06
   -5.77   400.000    3.147E+00    2.8719919E+06    1.1479961E-08    1.1825939E-08    2.8719919E+06    2.1531774E-08    2.8719919E+06
   -5.76   400.000    3.124E+00    2.7510893E+06    1.1800303E-08    1.2085574E-08    2.7510893E+06    2.1802917E-08    2.7510893E+06
   -5.75   400.000    3.101E+00    2.6344046E+06    1.1758246E-08    1.1987035E-08    2.6344046E+06    2.1646479E-08    2.6344046E+06
   -5.74   400.000    3.080E+00    2.5333557E+06    1.1379613E-08    1.1557813E-08    2.5333557E+06    2.1136694E-08    2.5333557E+06
   -5.73   400.000    3.058E+00    2.4578992E+06    1.0734668E-08    1.0869468E-08    2.4578992E+06    2.0405768E-08    2.4578992E+06
   -5.72   400.000    3.037E+00    2.4143740E+06    9.9180063E-09    1.0017115E-08    2.4143740E+06    1.9605995E-08    2.4143740E+06
   -5.71   400.000    3.016E+00    2.4040253E+06    9.0234268E-09    9.0941827E-09    2.4040253E+06    1.8868155E-08    2.4040253E+06
   -5.70   400.000    2.994E+00    2.4226587E+06    8.1236100E-09    8.1723737E-09    2.4226587E+06    1.8271191E-08    2.4226587E+06
   -5.69   400.000    2.973E+00    2.4615314E+06    7.2611032E-09    7.2932579E-09    2.4615314E+06    1.7832421E-08    2.4615314E+06
   -5.68   400.000    2.950E+00    2.5092428E+06    6.4518357E-09    6.4724942E-09    2.5092428E+06    1.7519329E-08    2.5092428E+06
   -5.67   400.000    2.926E+00    2.5541570E+06    5.6977058E-09    5.7129107E-09    2.5541570E+06    1.7276483E-08    2.5541570E+06
   -5.66   400.000    2.902E+00    2.5867836E+06    5.0020230E-09    5.0199724E-09    2.5867836E+06    1.7056150E-08    2.5867836E+06
   -5.65   400.000    2.876E+00    2.6015486E+06    4.3813066E-09    4.4130851E-09    2.6015486E+06    1.6840448E-08    2.6015486E+06
   -5.64   400.000    2.849E+00    2.5975384E+06    3.8690881E-09    3.9285932E-09    2.5975384E+06    1.6647478E-08    2.5975384E+06
   -5.63   400.000    2.820E+00    2.5781031E+06    3.5107819E-09    3.6139053E-09    2.5781031E+06    1.6521665E-08    2.5781032E+06
   -5.62   400.000    2.789E+00    2.5495787E+06    3.3518237E-09    3.5152495E-09    2.5495787E+06    1.6515054E-08    2.5495788E+06
   -5.61   400.000    2.756E+00    2.5196225E+06    3.4233619E-09    3.6633879E-09    2.5196225E+06    1.6668231E-08    2.5196226E+06
   -5.60   400.000    2.720E+00    2.4956441E+06    3.7307325E-09    4.0623031E-09    2.4956441E+06    1.6997268E-08    2.4956442E+06
   -5.59   400.000    2.681E+00    2.4835823E+06    4.2492445E-09    4.6850641E-09    2.4835823E+06    1.7489566E-08    2.4835825E+06
   -5.58   400.000    2.639E+00    2.4870360E+06    4.9288883E-09    5.4783027E-09    2.4870360E+06    1.8108364E-08    2.4870362E+06
   -5.57   400.000    2.593E+00    2.5066622E+06    5.7053921E-09    6.3728276E-09    2.5066622E+06    1.8803133E-08    2.5066624E+06
   -5.56   400.000    2.543E+00    2.5398556E+06    6.5121401E-09    7.2952863E-09    2.5398556E+06    1.9521041E-08    2.5398559E+06
   -5.55   400.000    2.489E+00    2.5809138E+06    7.2879916E-09    8.1763663E-09    2.5809138E+06    2.0214571E-08    2.5809142E+06
   -5.54   400.000    2.431E+00    2.6219794E+06    7.9796841E-09    8.9544125E-09    2.6219794E+06    2.0843614E-08    2.6219799E+06
   -5.53   400.000    2.368E+00    2.6548457E+06    8.5415895E-09    9.5769345E-09    2.6548457E+06    2.1375051E-08    2.6548464E+06
   -5.52   400.000    2.302E+00    2.6731984E+06    8.9369774E-09    1.0003443E-08    2.6731984E+06    2.1784591E-08    2.6731993E+06
   -5.51   400.000    2.232E+00    2.6743644E+06    9.1425055E-09    1.0210590E-08    2.6743644E+06    2.2062340E-08    2.6743656E+06
   -5.50   400.000    2.160E+00    2.6596532E+06    9.1535474E-09    1.0196912E-08    2.6596532E+06    2.2218219E-08    2.6596548E+06
   -5.49   400.000    2.087E+00    2.6330792E+06    8.9860164E-09    9.9831962E-09    2.6330792E+06    2.2281361E-08    2.6330813E+06
   -5.48   400.000    2.013E+00    2.5992151E+06    8.6723574E-09    9.6069234E-09    2.5992151E+06    2.2291061E-08    2.5992180E+06
   -5.47   400.000    1.939E+00    2.5613807E+06    8.2532712E-09    9.1131116E-09    2.5613807E+06    2.2282475E-08    2.5613845E+06
   -5.46   400.000    1.866E+00    2.5209985E+06    7.7688993E-09    8.5455569E-09    2.5209985E+06    2.2273278E-08    2.5210036E+06
   -5.45   400.000    1.794E+00    2.4781184E+06    7.2524520E-09    7.9411528E-09    2.4781184E+06    2.2256323E-08    2.4781253E+06
   -5.44   400.000    1.724E+00    2.4324611E+06    6.7274095E-09    7.3277837E-09    2.4324611E+06    2.2200171E-08    2.4324703E+06
   -5.43   400.000    1.656E+00    2.3842451E+06    6.2082731E-09    6.7252059E-09    2.3842451E+06    2.2056779E-08    2.3842574E+06
   -5.42   400.000    1.590E+00    2.3344341E+06    5.7041811E-09    6.1480587E-09    2.3344341E+06    2.1774113E-08    2.3344505E+06
   -5.41   400.000    1.526E+00    2.2844928E+06    5.2236483E-09    5.6095464E-09    2.2844928E+06    2.1310326E-08    2.2845146E+06
   -5.40   400.000    1.464E+00    2.2359437E+06    4.7778060E-09    5.1236892E-09    2.2359437E+06    2.0645649E-08    2.2359728E+06
   -5.39   400.000    1.404E+00    2.1899533E+06    4.3801994E-09    4.7046276E-09    2.1899533E+06    1.9788988E-08    2.1899921E+06
   -5.38   400.000    1.345E+00    2.1470395E+06    4.0434269E-09    4.3634036E-09    2.1470395E+06    1.8777899E-08    2.1470910E+06
   -5.37   400.000    1.289E+00    2.1069414E+06    3.7749075E-09    4.1043608E-09    2.1069414E+06    1.7672212E-08    2.1070099E+06
   -5.36   400.000    1.233E+00    2.0687236E+06    3.5742805E-09    3.9233941E-09    2.0687236E+06    1.6543245E-08    2.0688144E+06
   -5.35   400.000    1.178E+00    2.0311480E+06    3.4335940E-09    3.8089286E-09    2.0311480E+06    1.5462032E-08    2.0312681E+06
   -5.34   400.000    1.124E+00    1.9931899E+06    3.3397980E-09    3.7449524E-09    1.9931899E+06    1.4490155E-08    1.9933482E+06
   -5.33   400.000    1.072E+00    1.9544121E+06    3.2781491E-09    3.7146106E-09    1.9544121E+06    1.3674861E-08    1.9546199E+06
   -5.32   400.000    1.019E+00    1.9149687E+06    3.2351123E-09    3.7029686E-09    1.9149687E+06    1.3047431E-08    1.9152401E+06
   -5.31   400.000    9.684E-01    1.8752535E+06    3.1998939E-09    3.6982091E-09    1.8752535E+06    1.2622174E-08    1.8756056E+06
   -5.30   400.000    9.183E-01    1.8354338E+06    3.1644551E-09    3.6913157E-09    1.8354338E+06    1.2393887E-08    1.8358869E+06
   -5.29   400.000    8.696E-01    1.7951284E+06    3.1225023E-09    3.6749235E-09    1.7951284E+06    1.2333702E-08    1.7957058E+06
   -5.28   400.000    8.223E-01    1.7533520E+06    3.0683842E-09    3.6423261E-09    1.7533520E+06    1.2385831E-08    1.7540795E+06
   -5.27   400.000    7.767E-01    1.7087112E+06    2.9968324E-09    3.5874773E-09    1.7087112E+06    1.2469401E-08    1.7096162E+06
   -5.26   400.000    7.329E-01    1.6597723E+06    2.9039964E-09    3.5062532E-09    1.6597723E+06    1.2489018E-08    1.6608828E+06
   -5.25   400.000    6.911E-01    1.6055242E+06    2.7894063E-09    3.3984758E-09    1.6055242E+06    1.2354323E-08    1.6068674E+06
   -5.24   400.000    6.514E-01    1.5458492E+06    2.6577747E-09    3.2696078E-09    1.5458492E+06    1.2003489E-08    1.5474508E+06
   -5.23   400.000    6.138E-01    1.4818502E+06    2.5193453E-09    3.1309081E-09    1.4818502E+06    1.1421285E-08    1.4837341E+06
   -5.22   400.000    5.782E-01    1.4158137E+06    2.3880192E-09    2.9973301E-09    1.4158137E+06    1.0642869E-08    1.4180024E+06
   -5.21   400.000    5.447E-01    1.3506640E+06    2.2775777E-09    2.8834760E-09    1.3506640E+06    9.7410096E-09    1.3531784E+06
   -5.20   400.000    5.131E-01    1.2890314E+06    2.1973590E-09    2.7989841E-09    1.2890314E+06    8.8028252E-09    1.2918904E+06
   -5.19   400.000    4.831E-01    1.2323494E+06    2.1490952E-09    2.7451797E-09    1.2323494E+06    7.9064691E-09    1.2355674E+06
   -5.18   400.000    4.548E-01    1.1804450E+06    2.1261074E-09    2.7143623E-09    1.1804450E+06    7.1059895E-09    1.1840303E+06
   -5.17   400.000    4.278E-01    1.1318247E+06    2.1150895E-09    2.6920056E-09    1.1318247E+06    6.4268432E-09    1.1357794E+06
   -5.16   400.000    4.022E-01    1.0844530E+06    2.0997635E-09    2.6609726E-09    1.0844530E+06    5.8696425E-09    1.0887770E+06
   -5.15   400.000    3.777E-01    1.0365758E+06    2.0651095E-09    2.6061377E-09    1.0365758E+06    5.4178937E-09    1.0412745E+06
   -5.14   400.000    3.544E-01    9.8719772E+05    2.0008355E-09    2.5178688E-09    9.8719772E+05    5.0462890E-09    9.9228836E+05
   -5.13   400.000    3.322E-01    9.3609616E+05    1.9032318E-09    2.3935605E-09    9.3609616E+05    4.7278524E-09    9.4160929E+05
   -5.12   400.000    3.110E-01    8.8352666E+05    1.7752290E-09    2.2372754E-09    8.8352666E+05    4.4394567E-09    8.8949895E+05
   -5.11   400.000    2.909E-01    8.2989364E+05    1.6249837E-09    2.0580631E-09    8.2989364E+05    4.1654808E-09    8.3635411E+05
   -5.10   400.000    2.717E-01    7.7560129E+05    1.4635899E-09    1.8676459E-09    7.7560129E+05    3.8992750E-09    7.8255714E+05
   -5.09   400.000    2.535E-01    7.2113052E+05    1.3026727E-09    1.6781560E-09    7.2113052E+05    3.6423732E-09    7.2856055E+05
   -5.08   400.000    2.362E-01    6.6721556E+05    1.1526021E-09    1.5005078E-09    6.6721556E+05    3.4020325E-09    6.7507626E+05
   -5.07   400.000    2.197E-01    6.1492821E+05    1.0217083E-09    1.3436674E-09    6.1492821E+05    3.1880920E-09    6.2317108E+05
   -5.06   400.000    2.041E-01    5.6555373E+05    9.1629777E-10    1.2145913E-09    5.6555373E+05    3.0099681E-09    5.7414509E+05
   -5.05   400.000    1.893E-01    5.2028722E+05    8.4086291E-10    1.1182807E-09    5.2028722E+05    2.8741218E-09    5.2921915E+05
   -5.04   400.000    1.752E-01    4.7988338E+05    7.9795185E-10    1.0574930E-09    4.7988338E+05    2.7820386E-09    4.8916850E+05
   -5.03   400.000    1.616E-01    4.4440798E+05    7.8761152E-10    1.0320793E-09    4.4440798E+05    2.7288525E-09    4.5405955E+05
   -5.02   400.000    1.485E-01    4.1318973E+05    8.0678726E-10    1.0383695E-09    4.1318973E+05    2.7030322E-09    4.2319693E+05
   -5.01   400.000    1.358E-01    3.8499488E+05    8.4922048E-10    1.0691638E-09    3.8499488E+05    2.6876637E-09    3.9530653E+05
   -5.00   400.000    1.235E-01    3.5836504E+05    9.0614018E-10    1.1146171E-09    3.5836504E+05    2.6635170E-09    3.6889079E+05
   -4.99   400.000    1.116E-01    3.3199558E+05    9.6755910E-10    1.1637751E-09    3.3199558E+05    2.6132577E-09    3.4262411E+05
   -4.98   400.000    1.001E-01    3.0502180E+05    1.0236156E-09    1.2061269E-09    3.0502180E+05    2.5253218E-09    3.1564525E+05
   -4.97   400.000    8.910E-02    2.7713268E+05    1.0654721E-09    1.2326176E-09    2.7713268E+05    2.3958695E-09    2.8766310E+05
   -4.96   400.000    7.868E-02    2.4851557E+05    1.0857691E-09    1.2360980E-09    2.4851557E+05    2.2282002E-09    2.5888445E+05
   -4.95   400.000    6.888E-02    2.1969738E+05    1.0790790E-09    1.2116739E-09    2.1969738E+05    2.0304194E-09    2.2984055E+05
   -4.94   400.000    5.975E-02    1.9136224E+05    1.0427070E-09    1.1573532E-09    1.9136224E+05    1.8128405E-09    2.0120115E+05
   -4.93   400.000    5.133E-02    1.6420100E+05    9.7758759E-10    1.0747863E-09    1.6420100E+05    1.5861539E-09    1.7363284E+05
   -4.92   400.000    4.364E-02    1.3881245E+05    8.8855552E-10    9.6941934E-10    1.3881245E+05    1.3604331E-09    1.4771498E+05
   -4.91   400.000    3.670E-02    1.1565125E+05    7.8348215E-10    8.4956646E-10    1.1565125E+05    1.1445179E-09    1.2389937E+05
   -4.90   400.000    3.052E-02    9.5008775E+04    6.7149101E-10    7.2460993E-10    9.5008775E+04    9.4545265E-10    1.0249464E+05
   -4.89   400.000    2.509E-02    7.7015649E+04    5.6102407E-10    6.0308342E-10    7.7015649E+04    7.6803275E-10    8.3664471E+04
   -4.88   400.000    2.039E-02    6.1658492E+04    4.5849518E-10    4.9135763E-10    6.1658492E+04    6.1466036E-10    6.7436672E+04
   -4.87   400.000    1.638E-02    4.8806573E+04    3.6781130E-10    3.9319870E-10    4.8806573E+04    4.8558644E-10    5.3722327E+04
   -4.86   400.000    1.301E-02    3.8244114E+04    2.9059967E-10    3.1003202E-10    3.8244114E+04    3.7943093E-10    4.2342349E+04
   -4.85   400.000    1.023E-02    2.9703793E+04    2.2679488E-10    2.4156263E-10    2.9703793E+04    2.9379339E-10    3.3057201E+04
   -4.84   400.000    7.971E-03    2.2897232E+04    1.7528480E-10    1.8644818E-10    2.2897232E+04    2.2580012E-10    2.5595660E+04
   -4.83   400.000    6.161E-03    1.7539497E+04    1.3444634E-10    1.4285350E-10    1.7539497E+04    1.7251210E-10    1.9679564E+04
   -4.82   400.000    4.730E-03    1.3366250E+04    1.0251813E-10    1.0883356E-10    1.3366250E+04    1.3118393E-10    1.5042809E+04
   -4.81   400.000    3.611E-03    1.0143740E+04    7.7823385E-11    8.2559714E-11    1.0143740E+04    9.9399097E-11    1.1443983E+04
   -4.80   400.000    2.744E-03    7.6728646E+03    5.8881076E-11    6.2429434E-11    7.6728646E+03    7.5117650E-11    8.6730787E+03
   -4.79   400.000    2.078E-03    5.7889618E+03    4.4444442E-11    4.7101045E-11    5.7889618E+03    5.6669273E-11    6.5534231E+03
   -4.78   400.000    1.569E-03    4.3589701E+03    3.3497849E-11    3.5485933E-11    4.3589701E+03    4.2717298E-11    4.9403000E+03
   -4.77   400.000    1.182E-03    3.2772966E+03    2.5233044E-11    2.6720321E-11    3.2772966E+03    3.2210718E-11    3.7176386E+03
   -4.76   400.000    8.891E-04    2.4613183E+03    1.9017805E-11    2.0130019E-11    2.4613183E+03    2.4334631E-11    2.7938649E+03
   -4.75   400.000    6.678E-04    1.8470856E+03    1.4364145E-11    1.5195450E-11    1.8470856E+03    1.8464672E-11    2.0976498E+03
   -4.74   400.000    5.010E-04    1.3855156E+03    1.0899602E-11    1.1520419E-11    1.3855156E+03    1.4127870E-11    1.5739800E+03
   -4.73   400.000    3.755E-04    1.0391803E+03    8.3429340E-12    8.8058697E-12    1.0391803E+03    1.0970554E-11    1.1807491E+03
   -4.72   400.000    2.812E-04    7.7968453E+02    6.4844299E-12    6.8287215E-12    7.7968453E+02    8.7329694E-12    8.8592109E+02
   -4.71   400.000    2.103E-04    5.8557585E+02    5.1704965E-12    5.4253268E-12    5.8557585E+02    7.2298837E-12    6.6523865E+02
   -4.70   400.000    1.571E-04    4.4070745E+02    4.2919727E-12    4.4789423E-12    4.4070745E+02    6.3363816E-12    5.0040999E+02
   -4.69   400.000    1.171E-04    3.3297241E+02    3.7756300E-12    3.9105875E-12    3.3297241E+02    5.9781169E-12    3.7769702E+02
   -4.68   400.000    8.689E-05    2.5333586E+02    3.5783882E-12    3.6727734E-12    2.5333586E+02    6.1254846E-12    2.8682953E+02
   -4.67   400.000    6.404E-05    1.9510213E+02    3.6838991E-12    3.7457127E-12    1.9510213E+02    6.7913717E-12    2.2017914E+02
   -4.66   400.000    4.660E-05    1.5336573E+02    4.1012877E-12    4.1357697E-12    1.5336573E+02    8.0323854E-12    1.7213777E+02
   -4.65   400.000    3.309E-05    1.2460603E+02    4.8659880E-12    4.8760624E-12    1.2460603E+02    9.9537088E-12    1.3865646E+02
   -4.64   400.000    2.239E-05    1.0639459E+02    6.0427670E-12    6.0292893E-12    1.0639459E+02    1.2718015E-11    1.1690994E+02
   -4.63   400.000    1.357E-05    9.7192492E+01    7.7311967E-12    7.6930277E-12    9.7192492E+01    1.6559195E-11    1.0506161E+02
   -4.62   400.000    5.909E-06    9.6221553E+01    1.0074036E-11    1.0007946E-11    9.6221553E+01    2.1802040E-11    1.0211004E+02
   -4.61   400.000   -1.254E-06    1.0339893E+02    1.3269209E-11    1.3169607E-11    1.0339893E+02    2.8889505E-11    1.0780512E+02
   -4.60   400.000   -8.520E-06    1.1932995E+02    1.7586360E-11    1.7444820E-11    1.1932995E+02    3.8419760E-11    1.2262687E+02
   -4.59   400.000   -1.651E-05    1.4535831E+02    2.3389296E-11    2.3193853E-11    1.4535831E+02    5.1196009E-11    1.4782518E+02
   -4.58   400.000   -2.588E-05    1.8367779E+02    3.1166106E-11    3.0900250E-11    1.8367779E+02    6.8293000E-11    1.8552354E+02
   -4.57   400.000   -3.744E-05    2.3751387E+02    4.1569229E-11    4.1210527E-11    2.3751387E+02    9.1145315E-11    2.3889488E+02
   -4.56   400.000   -5.214E-05    3.1138947E+02    5.5468453E-11    5.4986678E-11    3.1138947E+02    1.2166396E-10    3.1242274E+02
   -4.55   400.000   -7.122E-05    4.1149450E+02    7.4020533E-11    7.3375167E-11    4.1149450E+02    1.6238947E-10    4.1226759E+02
   -4.54   400.000   -9.625E-05    5.4618607E+02    9.8759944E-11    9.7896849E-11    5.4618607E+02    2.1669141E-10    5.4676449E+02
   -4.53   400.000   -1.293E-04    7.2665338E+02    1.3171601E-10    1.3056304E-10    7.2665338E+02    2.8902600E-10    7.2708615E+02
   -4.52   400.000   -1.731E-04    9.6778923E+02    1.7556205E-10    1.7402326E-10    9.6778923E+02    3.8526417E-10    9.6811302E+02
   -4.51   400.000   -2.311E-04    1.2893168E+03    2.3380156E-10    2.3174972E-10    1.2893168E+03    5.1310173E-10    1.2895591E+03
   -4.50   400.000   -3.078E-04    1.7172237E+03    3.1099440E-10    3.0826125E-10    1.7172237E+03    6.8255790E-10    1.7174049E+03
   -4.49   400.000   -4.094E-04    2.2855491E+03    4.1301952E-10    4.0938344E-10    2.2855491E+03    9.0655605E-10    2.2856847E+03
   -4.48   400.000   -5.432E-04    3.0385505E+03    5.4735905E-10    5.4252961E-10    3.0385505E+03    1.2015536E-09    3.0386520E+03
   -4.47   400.000   -7.191E-04    4.0332224E+03    7.2336525E-10    7.1696448E-10    4.0332224E+03    1.5881383E-09    4.0332983E+03
   -4.46   400.000   -9.489E-04    5.3420439E+03    9.5243279E-10    9.4397329E-10    5.3420439E+03    2.0914224E-09    5.3421007E+03
   -4.45   400.000   -1.247E-03    7.0556623E+03    1.2479364E-09    1.2367974E-09    7.0556623E+03    2.7409287E-09    7.0557048E+03
   -4.44   400.000   -1.632E-03    9.2849663E+03    1.6247055E-09    1.6101097E-09    9.2849663E+03    3.5694668E-09    9.2849981E+03
   -4.43   400.000   -2.124E-03    1.2161673E+04    2.0976997E-09    2.0786960E-09    1.2161673E+04    4.6102592E-09    1.2161696E+04
   -4.42   400.000   -2.746E-03    1.5836210E+04    2.6794649E-09    2.6549259E-09    1.5836210E+04    5.8913794E-09    1.5836228E+04
   -4.41   400.000   -3.522E-03    2.0471549E+04    3.3759729E-09    3.3446194E-09    2.0471549E+04    7.4266091E-09    2.0471562E+04
   -4.40   400.000   -4.481E-03    2.6232011E+04    4.1807625E-09    4.1412304E-09    2.6232011E+04    9.2024944E-09    2.6232021E+04
   -4.39   400.000   -5.648E-03    3.3267476E+04    5.0680989E-09    5.0190597E-09    3.3267476E+04    1.1163137E-08    3.3267484E+04
   -4.38   400.000   -7.049E-03    4.1695847E+04    5.9872401E-09    5.9275733E-09    4.1695847E+04    1.3197285E-08    4.1695853E+04
   -4.37   400.000   -8.708E-03    5.1589388E+04    6.8614216E-09    6.7904144E-09    5.1589388E+04    1.5135679E-08    5.1589393E+04
   -4.36   400.000   -1.064E-02    6.2971201E+04    7.5956325E-09    7.5131521E-09    6.2971201E+04    1.6767681E-08    6.2971204E+04
   -4.35   400.000   -1.288E-02    7.5823764E+04    8.0949888E-09    8.0015634E-09    7.5823764E+04    1.7881246E-08    7.5823766E+04
   -4.34   400.000   -1.541E-02    9.0102448E+04    8.2900534E-09    8.1868249E-09    9.0102448E+04    1.8318357E-08    9.0102450E+04
   -4.33   400.000   -1.825E-02    1.0574032E+05    8.1594694E-09    8.0480422E-09    1.0574032E+05    1.8024918E-08    1.0574032E+05
   -4.32   400.000   -2.140E-02    1.2263700E+05    7.7388488E-09    7.6211107E-09    1.2263700E+05    1.7071103E-08    1.2263700E+05
   -4.31   400.000   -2.484E-02    1.4064440E+05    7.1108056E-09    6.9887939E-09    1.4064440E+05    1.5631254E-08    1.4064440E+05
   -4.30   400.000   -2.857E-02    1.5957821E+05    6.3808338E-09    6.2566446E-09    1.5957821E+05    1.3933666E-08    1.5957821E+05
   -4.29   400.000   -3.258E-02    1.7927311E+05    5.6501841E-09    5.5258624E-09    1.7927311E+05    1.2203989E-08    1.7927312E+05
   -4.28   400.000   -3.686E-02    1.9966418E+05    4.9960999E-09    4.8734460E-09    1.9966418E+05    1.0623408E-08    1.9966418E+05
   -4.27   400.000   -4.140E-02    2.2084518E+05    4.4639696E-09    4.3442732E-09    2.2084518E+05    9.3100210E-09    2.2084519E+05
   -4.26   400.000   -4.620E-02    2.4305616E+05    4.0699550E-09    3.9537429E-09    2.4305616E+05    8.3199115E-09    2.4305616E+05
   -4.25   400.000   -5.127E-02    2.6658709E+05    3.8095168E-09    3.6964235E-09    2.6658709E+05    7.6594349E-09    2.6658709E+05
   -4.24   400.000   -5.663E-02    2.9163156E+05    3.6672400E-09    3.5560811E-09    2.9163156E+05    7.3012898E-09    2.9163156E+05
   -4.23   400.000   -6.228E-02    3.1816205E+05    3.6251186E-09    3.5141996E-09    3.1816205E+05    7.2003307E-09    3.1816205E+05
   -4.22   400.000   -6.823E-02    3.4590546E+05    3.6683133E-09    3.5559570E-09    3.4590546E+05    7.3076089E-09    3.4590546E+05
   -4.21   400.000   -7.448E-02    3.7445220E+05    3.7883182E-09    3.6735255E-09    3.7445220E+05    7.5816734E-09    3.7445220E+05
   -4.20   400.000   -8.103E-02    4.0344814E+05    3.9835205E-09    3.8665963E-09    4.0344814E+05    7.9954643E-09    4.0344814E+05
   -4.19   400.000   -8.785E-02    4.3275222E+05    4.2570887E-09    4.1399981E-09    4.3275222E+05    8.5368875E-09    4.3275223E+05
   -4.18   400.000   -9.495E-02    4.6245742E+05    4.6125300E-09    4.4987495E-09    4.6245742E+05    9.2024966E-09    4.6245742E+05
   -4.17   400.000   -1.023E-01    4.9276300E+05    5.0479371E-09    4.9416584E-09    4.9276300E+05    9.9860710E-09    4.9276301E+05
   -4.16   400.000   -1.100E-01    5.2377226E+05    5.5504019E-09    5.4551256E-09    5.2377226E+05    1.0865712E-08    5.2377227E+05
   -4.15   400.000   -1.180E-01    5.5530974E+05    6.0922185E-09    6.0090271E-09    5.5530974E+05    1.1793683E-08    5.5530976E+05
   -4.14   400.000   -1.263E-01    5.8683677E+05    6.6306581E-09    6.5567123E-09    5.8683677E+05    1.2693328E-08    5.8683679E+05
   -4.13   400.000   -1.349E-01    6.1754456E+05    7.1131142E-09    7.0410153E-09    6.1754456E+05    1.3467218E-08    6.1754459E+05
   -4.12   400.000   -1.439E-01    6.4668362E+05    7.4882186E-09    7.4066893E-09    6.4668362E+05    1.4018300E-08    6.4668366E+05
   -4.11   400.000   -1.531E-01    6.7406265E+05    7.7204264E-09    7.6162815E-09    6.7406265E+05    1.4279551E-08    6.7406270E+05
   -4.10   400.000   -1.626E-01    7.0046004E+05    7.8020581E-09    7.6628848E-09    7.0046004E+05    1.4240018E-08    7.0046011E+05
   -4.09   400.000   -1.724E-01    7.2762260E+05    7.7561833E-09    7.5728407E-09    7.2762260E+05    1.3952974E-08    7.2762269E+05
   -4.08   400.000   -1.825E-01    7.5770738E+05    7.6277825E-09    7.3959617E-09    7.5770738E+05    1.3519794E-08    7.5770750E+05
   -4.07   400.000   -1.930E-01    7.9235369E+05    7.4669536E-09    7.1875234E-09    7.9235369E+05    1.3056478E-08    7.9235385E+05
   -4.06   400.000   -2.038E-01    8.3181601E+05    7.3119926E-09    6.9903652E-09    8.3181601E+05    1.2658849E-08    8.3181623E+05
   -4.05   400.000   -2.151E-01    8.7459723E+05    7.1796094E-09    6.8245820E-09    8.7459723E+05    1.2381460E-08    8.7459752E+05
   -4.04   400.000   -2.269E-01    9.1780833E+05    7.0655834E-09    6.6879769E-09    9.1780833E+05    1.2236832E-08    9.1780872E+05
   -4.03   400.000   -2.392E-01    9.5815645E+05    6.9543856E-09    6.5655477E-09    9.5815645E+05    1.2211755E-08    9.5815697E+05
   -4.02   400.000   -2.520E-01    9.9317094E+05    6.8326388E-09    6.4427949E-09    9.9317094E+05    1.2290306E-08    9.9317163E+05
   -4.01   400.000   -2.651E-01    1.0221600E+06    6.6999265E-09    6.3165477E-09    1.0221600E+06    1.2471065E-08    1.0221609E+06
   -4.00   400.000   -2.787E-01    1.0465047E+06    6.5719990E-09    6.1986413E-09    1.0465047E+06    1.2769595E-08    1.0465059E+06
   -3.99   400.000   -2.925E-01    1.0691713E+06    6.4752234E-09    6.1113956E-09    1.0691713E+06    1.3205131E-08    1.0691729E+06
   -3.98   400.000   -3.066E-01    1.0936306E+06    6.4352590E-09    6.0776111E-09    1.0936306E+06    1.3778673E-08    1.0936328E+06
   -3.97   400.000   -3.211E-01    1.1226097E+06    6.4653916E-09    6.1099882E-09    1.1226097E+06    1.4454179E-08    1.1226127E+06
   -3.96   400.000   -3.361E-01    1.1571906E+06    6.5598609E-09    6.2048001E-09    1.1571906E+06    1.5153760E-08    1.1571946E+06
   -3.95   400.000   -3.516E-01    1.1966301E+06    6.6952048E-09    6.3426538E-09    1.1966301E+06    1.5772345E-08    1.1966353E+06
   -3.94   400.000   -3.678E-01    1.2389287E+06    6.8390688E-09    6.4960030E-09    1.2389287E+06    1.6208505E-08    1.2389357E+06
   -3.93   400.000   -3.846E-01    1.2817857E+06    6.9623972E-09    6.6398433E-09    1.2817857E+06    1.6399094E-08    1.2817951E+06
   -3.92   400.000   -4.023E-01    1.3234024E+06    7.0491149E-09    6.7602654E-09    1.3234024E+06    1.6341207E-08    1.3234150E+06
   -3.91   400.000   -4.206E-01    1.3627737E+06    7.0986430E-09    6.8565476E-09    1.3627737E+06    1.6090070E-08    1.3627906E+06
   -3.90   400.000   -4.398E-01    1.3994901E+06    7.1204648E-09    6.9359830E-09    1.3994901E+06    1.5733926E-08    1.3995126E+06
   -3.89   400.000   -4.598E-01    1.4333580E+06    7.1241629E-09    7.0045669E-09    1.4333580E+06    1.5358630E-08    1.4333881E+06
   -3.88   400.000   -4.806E-01    1.4641473E+06    7.1104727E-09    7.0587595E-09    1.4641473E+06    1.5018300E-08    1.4641874E+06
   -3.87   400.000   -5.023E-01    1.4915881E+06    7.0681837E-09    7.0829675E-09    1.4915881E+06    1.4723484E-08    1.4916417E+06
   -3.86   400.000   -5.248E-01    1.5155698E+06    6.9788564E-09    7.0546825E-09    1.5155698E+06    1.4449487E-08    1.5156413E+06
   -3.85   400.000   -5.483E-01    1.5364140E+06    6.8273918E-09    6.9553576E-09    1.5364140E+06    1.4159230E-08    1.5365095E+06
   -3.84   400.000   -5.727E-01    1.5550754E+06    6.6130603E-09    6.7817080E-09    1.5550754E+06    1.3829803E-08    1.5552029E+06
   -3.83   400.000   -5.982E-01    1.5731346E+06    6.3549075E-09    6.5514187E-09    1.5731346E+06    1.3471444E-08    1.5733047E+06
   -3.82   400.000   -6.248E-01    1.5925274E+06    6.0886423E-09    6.3003400E-09    1.5925274E+06    1.3132478E-08    1.5927541E+06
   -3.81   400.000   -6.528E-01    1.6150755E+06    5.8573021E-09    6.0732922E-09    1.6150755E+06    1.2891102E-08    1.6153773E+06
   -3.80   400.000   -6.822E-01    1.6419877E+06    5.7013301E-09    5.9138820E-09    1.6419877E+06    1.2840419E-08    1.6423890E+06
   -3.79   400.000   -7.134E-01    1.6735202E+06    5.6529595E-09    5.8581713E-09    1.6735202E+06    1.3073992E-08    1.6740530E+06
   -3.78   400.000   -7.466E-01    1.7089118E+06    5.7361938E-09    5.9337240E-09    1.7089118E+06    1.3676172E-08    1.7096177E+06
   -3.77   400.000   -7.819E-01    1.7465792E+06    5.9701458E-09    6.1621695E-09    1.7465792E+06    1.4717213E-08    1.7475118E+06
   -3.76   400.000   -8.196E-01    1.7844481E+06    6.3721190E-09    6.5619309E-09    1.7844481E+06    1.6250202E-08    1.7856752E+06
   -3.75   400.000   -8.598E-01    1.8202798E+06    6.9577426E-09    7.1484447E-09    1.8202798E+06    1.8306439E-08    1.8218866E+06
   -3.74   400.000   -9.025E-01    1.8519157E+06    7.7375983E-09    7.9311411E-09    1.8519157E+06    2.0887841E-08    1.8540061E+06
   -3.73   400.000   -9.478E-01    1.8774249E+06    8.7117827E-09    8.9084308E-09    1.8774249E+06    2.3958032E-08    1.8801220E+06
   -3.72   400.000   -9.958E-01    1.8951917E+06    9.8648386E-09    1.0063014E-08    1.8951917E+06    2.7436356E-08    1.8986352E+06
   -3.71   400.000   -1.046E+00    1.9040181E+06    1.1163079E-08    1.1359529E-08    1.9040181E+06    3.1199117E-08    1.9083566E+06
   -3.70   400.000   -1.100E+00    1.9033115E+06    1.2554772E-08    1.2745005E-08    1.9033115E+06    3.5088818E-08    1.9086898E+06
   -3.69   400.000   -1.155E+00    1.8933356E+06    1.3972087E-08    1.4150985E-08    1.8933356E+06    3.8927360E-08    1.8998745E+06
   -3.68   400.000   -1.214E+00    1.8753860E+06    1.5333901E-08    1.5496314E-08    1.8753860E+06    4.2527900E-08    1.8831576E+06
   -3.67   400.000   -1.275E+00    1.8517611E+06    1.6550977E-08    1.6692070E-08    1.8517611E+06    4.5705408E-08    1.8607643E+06
   -3.66   400.000   -1.338E+00    1.8255287E+06    1.7537153E-08    1.7652426E-08    1.8255287E+06    4.8292787E-08    1.8356715E+06
   -3.65   400.000   -1.405E+00    1.8001864E+06    1.8227938E-08    1.8313028E-08    1.8001864E+06    5.0167951E-08    1.8112837E+06
   -3.64   400.000   -1.475E+00    1.7792696E+06    1.8600795E-08    1.8651341E-08    1.7792696E+06    5.1284969E-08    1.7910576E+06
   -3.63   400.000   -1.547E+00    1.7658603E+06    1.8685147E-08    1.8696989E-08    1.7658603E+06    5.1690370E-08    1.7780258E+06
   -3.62   400.000   -1.623E+00    1.7619613E+06    1.8552208E-08    1.8521997E-08    1.7619613E+06    5.1508506E-08    1.7741767E+06
   -3.61   400.000   -1.701E+00    1.7678358E+06    1.8285949E-08    1.8212034E-08    1.7678358E+06    5.0898454E-08    1.7797932E+06
   -3.60   400.000   -1.782E+00    1.7815514E+06    1.7949015E-08    1.7832287E-08    1.7815514E+06    5.0004391E-08    1.7929885E+06
   -3.59   400.000   -1.866E+00    1.7989810E+06    1.7561711E-08    1.7406103E-08    1.7989810E+06    4.8925737E-08    1.8096983E+06
   -3.58   400.000   -1.951E+00    1.8143853E+06    1.7105129E-08    1.6917561E-08    1.8143853E+06    4.7720250E-08    1.8242514E+06
   -3.57   400.000   -2.037E+00    1.8214889E+06    1.6545602E-08    1.6335360E-08    1.8214889E+06    4.6432516E-08    1.8304360E+06
   -3.56   400.000   -2.124E+00    1.8147593E+06    1.5865484E-08    1.5643146E-08    1.8147593E+06    4.5125228E-08    1.8227707E+06
   -3.55   400.000   -2.211E+00    1.7904873E+06    1.5082235E-08    1.4858438E-08    1.7904873E+06    4.3889961E-08    1.7975829E+06
   -3.54   400.000   -2.298E+00    1.7473530E+06    1.4246172E-08    1.4030508E-08    1.7473530E+06    4.2828648E-08    1.7535750E+06
   -3.53   400.000   -2.384E+00    1.6863864E+06    1.3420941E-08    1.3221217E-08    1.6863864E+06    4.2017293E-08    1.6917907E+06
   -3.52   400.000   -2.470E+00    1.6104678E+06    1.2660356E-08    1.2482277E-08    1.6104678E+06    4.1475572E-08    1.6151176E+06
   -3.51   400.000   -2.556E+00    1.5236004E+06    1.1995116E-08    1.1842305E-08    1.5236004E+06    4.1162493E-08    1.5275635E+06
   -3.50   400.000   -2.641E+00    1.4301659E+06    1.1435215E-08    1.1309443E-08    1.4301659E+06    4.1002954E-08    1.4335130E+06
   -3.49   400.000   -2.727E+00    1.3343184E+06    1.0984583E-08    1.0886112E-08    1.3343184E+06    4.0933273E-08    1.3371214E+06
   -3.48   400.000   -2.813E+00    1.2396014E+06    1.0658937E-08    1.0586884E-08    1.2396014E+06    4.0944823E-08    1.2419317E+06
   -3.47   400.000   -2.899E+00    1.1487821E+06    1.0498116E-08    1.0450769E-08    1.1487821E+06    4.1107867E-08    1.1507086E+06
   -3.46   400.000   -2.985E+00    1.0638098E+06    1.0568945E-08    1.0543949E-08    1.0638098E+06    4.1569617E-08    1.0653960E+06
   -3.45   400.000   -3.071E+00    9.8579895E+05    1.0959764E-08    1.0954195E-08    9.8579895E+05    4.2532826E-08    9.8710079E+05
   -3.44   400.000   -3.156E+00    9.1501117E+05    1.1769701E-08    1.1780103E-08    9.1501117E+05    4.4225637E-08    9.1607629E+05
   -3.43   400.000   -3.240E+00    8.5088888E+05    1.3094250E-08    1.3116739E-08    8.5088888E+05    4.6868679E-08    8.5175663E+05
   -3.42   400.000   -3.321E+00    7.9221121E+05    1.5006531E-08    1.5037047E-08    7.9221121E+05    5.0637586E-08    7.9291395E+05
   -3.41   400.000   -3.400E+00    7.3739180E+05    1.7533441E-08    1.7568144E-08    7.3739180E+05    5.5615278E-08    7.3795654E+05
   -3.40   400.000   -3.474E+00    6.8485179E+05    2.0628247E-08    2.0663959E-08    6.8485179E+05    6.1732154E-08    6.8530160E+05
   -3.39   400.000   -3.544E+00    6.3334728E+05    2.4145011E-08    2.4179554E-08    6.3334728E+05    6.8703284E-08    6.3370219E+05
   -3.38   400.000   -3.609E+00    5.8215568E+05    2.7824273E-08    2.7856563E-08    5.8215568E+05    7.5985755E-08    5.8243316E+05
   -3.37   400.000   -3.669E+00    5.3111227E+05    3.1302187E-08    3.1332050E-08    5.3111227E+05    8.2789802E-08    5.3132742E+05
   -3.36   400.000   -3.723E+00    4.8055857E+05    3.4154123E-08    3.4181918E-08    4.8055857E+05    8.8174618E-08    4.8072417E+05
   -3.35   400.000   -3.772E+00    4.3126624E+05    3.5974577E-08    3.6000786E-08    4.3126624E+05    9.1234486E-08    4.3139293E+05
   -3.34   400.000   -3.816E+00    3.8435763E+05    3.6476723E-08    3.6501685E-08    3.8435763E+05    9.1333779E-08    3.8445407E+05
   -3.33   400.000   -3.855E+00    3.4121082E+05    3.5575666E-08    3.5599501E-08    3.4121082E+05    8.8303316E-08    3.4128394E+05
   -3.32   400.000   -3.889E+00    3.0333748E+05    3.3416416E-08    3.3439111E-08    3.0333748E+05    8.2505729E-08    3.0339274E+05
   -3.31   400.000   -3.920E+00    2.7224147E+05    3.0330817E-08    3.0352381E-08    2.7224147E+05    7.4734146E-08    2.7228314E+05
   -3.30   400.000   -3.948E+00    2.4928414E+05    2.6743995E-08    2.6764590E-08    2.4928414E+05    6.5993849E-08    2.4931550E+05
   -3.29   400.000   -3.973E+00    2.3558709E+05    2.3073053E-08    2.3093057E-08    2.3558709E+05    5.7267398E-08    2.3561066E+05
   -3.28   400.000   -3.998E+00    2.3199348E+05    1.9654878E-08    1.9674872E-08    2.3199348E+05    4.9348622E-08    2.3201117E+05
   -3.27   400.000   -4.022E+00    2.3908996E+05    1.6716415E-08    1.6737122E-08    2.3908996E+05    4.2775409E-08    2.3910323E+05
   -3.26   400.000   -4.048E+00    2.5727160E+05    1.4379398E-08    1.4401580E-08    2.5727160E+05    3.7841441E-08    2.5728155E+05
   -3.25   400.000   -4.076E+00    2.8681745E+05    1.2682842E-08    1.2707184E-08    2.8681745E+05    3.4647182E-08    2.8682490E+05
   -3.24   400.000   -4.106E+00    3.2794074E+05    1.1608824E-08    1.1635816E-08    3.2794074E+05    3.3156150E-08    3.2794632E+05
   -3.23   400.000   -4.141E+00    3.8078664E+05    1.1103487E-08    1.1133348E-08    3.8078664E+05    3.3238285E-08    3.8079082E+05
   -3.22   400.000   -4.180E+00    4.4537068E+05    1.1090971E-08    1.1123642E-08    4.4537068E+05    3.4696551E-08    4.4537381E+05
   -3.21   400.000   -4.224E+00    5.2147393E+05    1.1481145E-08    1.1516421E-08    5.2147393E+05    3.7281056E-08    5.2147627E+05
   -3.20   400.000   -4.274E+00    6.0852815E+05    1.2173143E-08    1.2210982E-08    6.0852815E+05    4.0696899E-08    6.0852990E+05
   -3.19   400.000   -4.328E+00    7.0553181E+05    1.3056769E-08    1.3097818E-08    7.0553181E+05    4.4609955E-08    7.0553313E+05
   -3.18   400.000   -4.386E+00    8.1103385E+05    1.4014061E-08    1.4060343E-08    8.1103385E+05    4.8652496E-08    8.1103483E+05
   -3.17   400.000   -4.448E+00    9.2320340E+05    1.4923588E-08    1.4979209E-08    9.2320340E+05    5.2431577E-08    9.2320414E+05
   -3.16   400.000   -4.512E+00    1.0399675E+06    1.5669561E-08    1.5741161E-08    1.0399675E+06    5.5546933E-08    1.0399680E+06
   -3.15   400.000   -4.577E+00    1.1591562E+06    1.6155384E-08    1.6252010E-08    1.1591562E+06    5.7626472E-08    1.1591566E+06
   -3.14   400.000   -4.643E+00    1.2785811E+06    1.6317794E-08    1.6449995E-08    1.2785811E+06    5.8380432E-08    1.2785814E+06
   -3.13   400.000   -4.707E+00    1.3960173E+06    1.6136019E-08    1.6314242E-08    1.3960173E+06    5.7660991E-08    1.3960175E+06
   -3.12   400.000   -4.770E+00    1.5091462E+06    1.5632396E-08    1.5865064E-08    1.5091462E+06    5.5502560E-08    1.5091464E+06
   -3.11   400.000   -4.830E+00    1.6155557E+06    1.4865004E-08    1.5156809E-08    1.6155557E+06    5.2120304E-08    1.6155558E+06
   -3.10   400.000   -4.887E+00    1.7128585E+06    1.3915377E-08    1.4266245E-08    1.7128585E+06    4.7862244E-08    1.7128586E+06
   -3.09   400.000   -4.942E+00    1.7989537E+06    1.2874145E-08    1.3279001E-08    1.7989537E+06    4.3132344E-08    1.7989538E+06
   -3.08   400.000   -4.993E+00    1.8724755E+06    1.1826521E-08    1.2275714E-08    1.8724755E+06    3.8313361E-08    1.8724755E+06
   -3.07   400.000   -5.041E+00    1.9334740E+06    1.0840245E-08    1.1320388E-08    1.9334740E+06    3.3713627E-08    1.9334740E+06
   -3.06   400.000   -5.085E+00    1.9842141E+06    9.9596207E-09    1.0454703E-08    1.9842141E+06    2.9547555E-08    1.9842142E+06
   -3.05   400.000   -5.126E+00    2.0297280E+06    9.2080278E-09    9.7007527E-09    2.0297280E+06    2.5945185E-08    2.0297280E+06
   -3.04   400.000   -5.165E+00    2.0776581E+06    8.5972582E-09    9.0705429E-09    2.0776581E+06    2.2977501E-08    2.0776581E+06
   -3.03   400.000   -5.201E+00    2.1371529E+06    8.1382485E-09    8.5766489E-09    2.1371529E+06    2.0683029E-08    2.1371529E+06
   -3.02   400.000   -5.234E+00    2.2170393E+06    7.8474914E-09    8.2382192E-09    2.2170393E+06    1.9085726E-08    2.2170393E+06
   -3.01   400.000   -5.266E+00    2.3239072E+06    7.7468104E-09    8.0801373E-09    2.3239072E+06    1.8201162E-08    2.3239072E+06
   -3.00   400.000   -5.296E+00    2.4608276E+06    7.8581702E-09    8.1273537E-09    2.4608276E+06    1.8033369E-08    2.4608276E+06
   -2.99   400.000   -5.325E+00    2.6271169E+06    8.1967591E-09    8.3978962E-09    2.6271169E+06    1.8566428E-08    2.6271169E+06
   -2.98   400.000   -5.354E+00    2.8190284E+06    8.7643203E-09    8.8965011E-09    2.8190284E+06    1.9753395E-08    2.8190284E+06
   -2.97   400.000   -5.383E+00    3.0308208E+06    9.5426338E-09    9.6084055E-09    3.0308208E+06    2.1503428E-08    3.0308208E+06
   -2.96   400.000   -5.411E+00    3.2555435E+06    1.0486442E-08    1.0492190E-08    3.2555435E+06    2.3668448E-08    3.2555435E+06
   -2.95   400.000   -5.440E+00    3.4851278E+06    1.1516930E-08    1.1472689E-08    3.4851278E+06    2.6033924E-08    3.4851278E+06
   -2.94   400.000   -5.470E+00    3.7098704E+06    1.2520184E-08    1.2438702E-08    3.7098704E+06    2.8322612E-08    3.7098704E+06
   -2.93   400.000   -5.499E+00    3.9179540E+06    1.3357116E-08    1.3252407E-08    3.9179540E+06    3.0221496E-08    3.9179540E+06
   -2.92   400.000   -5.530E+00    4.0958904E+06    1.3888700E-08    1.3774595E-08    4.0958904E+06    3.1436115E-08    4.0958904E+06
   -2.91   400.000   -5.560E+00    4.2303653E+06    1.4012054E-08    1.3901128E-08    4.2303653E+06    3.1761508E-08    4.2303653E+06
   -2.90   400.000   -5.591E+00    4.3110432E+06    1.3693082E-08    1.3596172E-08    4.3110432E+06    3.1142368E-08    4.3110432E+06
   -2.89   400.000   -5.622E+00    4.3331437E+06    1.2978769E-08    1.2905051E-08    4.3331437E+06    2.9691421E-08    4.3331437E+06
   -2.88   400.000   -5.653E+00    4.2986387E+06    1.1981301E-08    1.1938747E-08    4.2986387E+06    2.7652970E-08    4.2986387E+06
   -2.87   400.000   -5.684E+00    4.2156313E+06    1.0841655E-08    1.0837528E-08    4.2156313E+06    2.5327571E-08    4.2156313E+06
   -2.86   400.000   -5.714E+00    4.0962928E+06    9.6903208E-09    9.7312606E-09    4.0962928E+06    2.2992207E-08    4.0962928E+06
   -2.85   400.000   -5.744E+00    3.9542233E+06    8.6209580E-09    8.7123695E-09    3.9542233E+06    2.0846174E-08    3.9542233E+06
   -2.84   400.000   -5.773E+00    3.8021728E+06    7.6828601E-09    7.8277223E-09    3.8021728E+06    1.8994177E-08    3.8021728E+06
   -2.83   400.000   -5.801E+00    3.6507794E+06    6.8884737E-09    7.0861082E-09    3.6507794E+06    1.7460223E-08    3.6507794E+06
   -2.82   400.000   -5.830E+00    3.5084744E+06    6.2279226E-09    6.4734108E-09    3.5084744E+06    1.6217621E-08    3.5084744E+06
   -2.81   400.000   -5.857E+00    3.3821896E+06    5.6833186E-09    5.9679422E-09    3.3821896E+06    1.5220825E-08    3.3821896E+06
   -2.80   400.000   -5.885E+00    3.2782248E+06    5.2387776E-09    5.5512771E-09    3.2782248E+06    1.4429325E-08    3.2782248E+06
   -2.79   400.000   -5.912E+00    3.2027234E+06    4.8852101E-09    5.2131791E-09    3.2027234E+06    1.3819368E-08    3.2027234E+06
   -2.78   400.000   -5.939E+00    3.1615963E+06    4.6211278E-09    4.9518342E-09    3.1615963E+06    1.3384880E-08    3.1615963E+06
   -2.77   400.000   -5.966E+00    3.1601551E+06    4.4516284E-09    4.7719969E-09    3.1601551E+06    1.3133116E-08    3.1601551E+06
   -2.76   400.000   -5.994E+00    3.2028566E+06    4.3873721E-09    4.6834565E-09    3.2028566E+06    1.3081221E-08    3.2028566E+06
   -2.75   400.000   -6.022E+00    3.2933351E+06    4.4441515E-09    4.7007586E-09    3.2933351E+06    1.3256765E-08    3.2933351E+06
   -2.74   400.000   -6.050E+00    3.4345156E+06    4.6424374E-09    4.8434398E-09    3.4345156E+06    1.3700834E-08    3.4345156E+06
   -2.73   400.000   -6.078E+00    3.6283639E+06    5.0058512E-09    5.1353044E-09    3.6283639E+06    1.4469689E-08    3.6283639E+06
   -2.72   400.000   -6.107E+00    3.8749650E+06    5.5580630E-09    5.6018408E-09    3.8749650E+06    1.5631678E-08    3.8749650E+06
   -2.71   400.000   -6.136E+00    4.1711285E+06    6.3185897E-09    6.2661328E-09    4.1711285E+06    1.7258904E-08    4.1711285E+06
   -2.70   400.000   -6.166E+00    4.5092617E+06    7.2985573E-09    7.1444738E-09    4.5092617E+06    1.9415517E-08    4.5092617E+06
   -2.69   400.000   -6.196E+00    4.8773920E+06    8.4973145E-09    8.2427511E-09    4.8773920E+06    2.2145014E-08    4.8773920E+06
   -2.68   400.000   -6.226E+00    5.2607366E+06    9.9001532E-09    9.5538408E-09    5.2607366E+06    2.5457938E-08    5.2607366E+06
   -2.67   400.000   -6.258E+00    5.6443296E+06    1.1476954E-08    1.1055598E-08    5.6443296E+06    2.9320668E-08    5.6443296E+06
   -2.66   400.000   -6.290E+00    6.0154966E+06    1.3181694E-08    1.2709152E-08    6.0154966E+06    3.3646376E-08    6.0154966E+06
   -2.65   400.000   -6.322E+00    6.3650035E+06    1.4953019E-08    1.4457800E-08    6.3650035E+06    3.8290036E-08    6.3650035E+06
   -2.64   400.000   -6.355E+00    6.6865129E+06    1.6715909E-08    1.6227084E-08    6.6865129E+06    4.3049050E-08    6.6865129E+06
   -2.63   400.000   -6.388E+00    6.9749795E+06    1.8384069E-08    1.7926500E-08    6.9749795E+06    4.7670436E-08    6.9749795E+06
   -2.62   400.000   -6.422E+00    7.2251691E+06    1.9863691E-08    1.9454060E-08    7.2251691E+06    5.1867296E-08    7.2251691E+06
   -2.61   400.000   -6.456E+00    7.4313944E+06    2.1061777E-08    2.0706758E-08    7.4313944E+06    5.5351652E-08    7.4313944E+06
   -2.60   400.000   -6.489E+00    7.5889369E+06    2.1903035E-08    2.1600155E-08    7.5889369E+06    5.7890270E-08    7.5889369E+06
   -2.59   400.000   -6.522E+00    7.6966164E+06    2.2354172E-08    2.2094935E-08    7.6966164E+06    5.9375899E-08    7.6966164E+06
   -2.58   400.000   -6.555E+00    7.7589362E+06    2.2445000E-08    2.2219124E-08    7.7589362E+06    5.9883402E-08    7.7589362E+06
   -2.57   400.000   -6.587E+00    7.7858971E+06    2.2270996E-08    2.2070464E-08    7.7858971E+06    5.9670531E-08    7.7858971E+06
   -2.56   400.000   -6.618E+00    7.7895555E+06    2.1969122E-08    2.1790996E-08    7.7895555E+06    5.9103816E-08    7.7895555E+06
   -2.55   400.000   -6.648E+00    7.7784720E+06    2.1673830E-08    2.1521282E-08    7.7784720E+06    5.8531015E-08    7.7784720E+06
   -2.54   400.000   -6.677E+00    7.7530056E+06    2.1471727E-08    2.1353205E-08    7.7530056E+06    5.8152541E-08    7.7530056E+06
   -2.53   400.000   -6.705E+00    7.7044715E+06    2.1374083E-08    2.1301001E-08    7.7044715E+06    5.7946458E-08    7.7044715E+06
   -2.52   400.000   -6.733E+00    7.6191982E+06    2.1318464E-08    2.1302074E-08    7.6191982E+06    5.7679196E-08    7.6191982E+06
   -2.51   400.000   -6.761E+00    7.4857239E+06    2.1199344E-08    2.1247589E-08    7.4857239E+06    5.7000758E-08    7.4857239E+06
   -2.50   400.000   -6.788E+00    7.3015253E+06    2.0916012E-08    2.1031034E-08    7.3015253E+06    5.5588610E-08    7.3015253E+06
   -2.49   400.000   -6.814E+00    7.0758610E+06    2.0417753E-08    2.0594377E-08    7.0758610E+06    5.3280088E-08    7.0758610E+06
   -2.48   400.000   -6.840E+00    6.8274028E+06    1.9726637E-08    1.9951881E-08    6.8274028E+06    5.0135557E-08    6.8274028E+06
   -2.47   400.000   -6.865E+00    6.5781117E+06    1.8929946E-08    1.9183454E-08    6.5781117E+06    4.6409950E-08    6.5781117E+06
   -2.46   400.000   -6.889E+00    6.3466434E+06    1.8150874E-08    1.8406256E-08    6.3466434E+06    4.2458729E-08    6.3466434E+06
   -2.45   400.000   -6.914E+00    6.1443255E+06    1.7515550E-08    1.7742682E-08    6.1443255E+06    3.8631646E-08    6.1443255E+06
   -2.44   400.000   -6.937E+00    5.9747444E+06    1.7130835E-08    1.7299009E-08    5.9747444E+06    3.5198423E-08    5.9747444E+06
   -2.43   400.000   -6.960E+00    5.8357550E+06    1.7075838E-08    1.7157301E-08    5.8357550E+06    3.2319959E-08    5.8357550E+06
   -2.42   400.000   -6.983E+00    5.7219179E+06    1.7400859E-08    1.7373993E-08    5.7219179E+06    3.0053366E-08    5.7219179E+06
   -2.41   400.000   -7.005E+00    5.6263006E+06    1.8125877E-08    1.7977353E-08    5.6263006E+06    2.8372433E-08    5.6263006E+06
   -2.40   400.000   -7.026E+00    5.5420455E+06    1.9235015E-08    1.8960688E-08    5.5420455E+06    2.7191831E-08    5.5420455E+06
   -2.39   400.000   -7.047E+00    5.4645628E+06    2.0668151E-08    2.0272854E-08    5.4645628E+06    2.6390969E-08    5.4645628E+06
   -2.38   400.000   -7.066E+00    5.3942596E+06    2.2313026E-08    2.1809495E-08    5.3942596E+06    2.5835308E-08    5.3942596E+06
   -2.37   400.000   -7.086E+00    5.3384381E+06    2.4001695E-08    2.3408767E-08    5.3384381E+06    2.5391840E-08    5.3384381E+06
   -2.36   400.000   -7.104E+00    5.3107865E+06    2.5516429E-08    2.4856628E-08    5.3107865E+06    2.4937019E-08    5.3107865E+06
   -2.35   400.000   -7.122E+00    5.3281127E+06    2.6611652E-08    2.5908545E-08    5.3281127E+06    2.4360606E-08    5.3281127E+06
   -2.34   400.000   -7.140E+00    5.4056857E+06    2.7056053E-08    2.6331835E-08    5.4056857E+06    2.3572583E-08    5.4056857E+06
   -2.33   400.000   -7.158E+00    5.5533922E+06    2.6688775E-08    2.5962367E-08    5.5533922E+06    2.2517104E-08    5.5533922E+06
   -2.32   400.000   -7.175E+00    5.7742948E+06    2.5469695E-08    2.4755331E-08    5.7742948E+06    2.1188701E-08    5.7742948E+06
   -2.31   400.000   -7.193E+00    6.0657235E+06    2.3498747E-08    2.2804878E-08    6.0657235E+06    1.9639707E-08    6.0657235E+06
   -2.30   400.000   -7.212E+00    6.4218322E+06    2.0991808E-08    2.0320224E-08    6.4218322E+06    1.7971129E-08    6.4218322E+06
   -2.29   400.000   -7.231E+00    6.8361658E+06    1.8223748E-08    1.7568817E-08    6.8361658E+06    1.6309491E-08    6.8361658E+06
   -2.28   400.000   -7.251E+00    7.3030394E+06    1.5464629E-08    1.4812496E-08    7.3030394E+06    1.4779830E-08    7.3030394E+06
   -2.27   400.000   -7.272E+00    7.8170906E+06    1.2932632E-08    1.2260289E-08    7.8170906E+06    1.3484441E-08    7.8170906E+06
   -2.26   400.000   -7.293E+00    8.3711672E+06    1.0772945E-08    1.0047536E-08    8.3711672E+06    1.2490972E-08    8.3711672E+06
   -2.25   400.000   -7.316E+00    8.9536810E+06    9.0584031E-09    8.2377794E-09    8.9536810E+06    1.1828684E-08    8.9536810E+06
   -2.24   400.000   -7.340E+00    9.5470614E+06    7.8021435E-09    6.8379019E-09    9.5470614E+06    1.1490716E-08    9.5470614E+06
   -2.23   400.000   -7.365E+00    1.0128356E+07    6.9740675E-09    5.8176745E-09    1.0128356E+07    1.1441228E-08    1.0128356E+07
   -2.22   400.000   -7.390E+00    1.0671640E+07    6.5168476E-09    5.1281130E-09    1.0671640E+07    1.1626535E-08    1.0671640E+07
   -2.21   400.000   -7.416E+00    1.1150873E+07    6.3600012E-09    4.7157315E-09    1.1150873E+07    1.1987669E-08    1.1150873E+07
   -2.20   400.000   -7.443E+00    1.1541962E+07    6.4310479E-09    4.5310876E-09    1.1541962E+07    1.2469887E-08    1.1541962E+07
   -2.19   400.000   -7.470E+00    1.1823636E+07    6.6623009E-09    4.5308427E-09    1.1823636E+07    1.3024764E-08    1.1823636E+07
   -2.18   400.000   -7.497E+00    1.1977611E+07    6.9922241E-09    4.6740834E-09    1.1977611E+07    1.3604071E-08    1.1977611E+07
   -2.17   400.000   -7.524E+00    1.1988863E+07    7.3622560E-09    4.9158068E-09    1.1988863E+07    1.4149700E-08    1.1988863E+07
   -2.16   400.000   -7.550E+00    1.1846718E+07    7.7125580E-09    5.2020241E-09    1.1846718E+07    1.4586930E-08    1.1846718E+07
   -2.15   400.000   -7.575E+00    1.1547092E+07    7.9813687E-09    5.4705839E-09    1.1547092E+07    1.4827368E-08    1.1547092E+07
   -2.14   400.000   -7.600E+00    1.1095668E+07    8.1110203E-09    5.6591935E-09    1.1095668E+07    1.4783392E-08    1.1095668E+07
   -2.13   400.000   -7.624E+00    1.0510934E+07    8.0594679E-09    5.7181934E-09    1.0510934E+07    1.4389826E-08    1.0510934E+07
   -2.12   400.000   -7.646E+00    9.8253544E+06    7.8119847E-09    5.6225723E-09    9.8253544E+06    1.3623759E-08    9.8253544E+06
   -2.11   400.000   -7.666E+00    9.0832588E+06    7.3866814E-09    5.3776328E-09    9.0832588E+06    1.2513247E-08    9.0832588E+06
   -2.10   400.000   -7.685E+00    8.3356333E+06    6.8306675E-09    5.0158935E-09    8.3356333E+06    1.1131032E-08    8.3356333E+06
   -2.09   400.000   -7.703E+00    7.6335728E+06    6.2084788E-09    4.5869912E-09    7.6335728E+06    9.5769156E-09    7.6335728E+06
   -2.08   400.000   -7.719E+00    7.0223055E+06    5.5873794E-09    4.1447756E-09    7.0223055E+06    7.9567284E-09    7.0223055E+06
   -2.07   400.000   -7.734E+00    6.5366842E+06    5.0240949E-09    3.7356200E-09    6.5366842E+06    6.3650513E-09    6.5366842E+06
   -2.06   400.000   -7.748E+00    6.1981275E+06    4.5557397E-09    3.3903199E-09    6.1981275E+06    4.8751356E-09    6.1981275E+06
   -2.05   400.000   -7.762E+00    6.0129133E+06    4.1958193E-09    3.1202647E-09    6.0129133E+06    3.5358690E-09    6.0129133E+06
   -2.04   400.000   -7.776E+00    5.9721144E+06    3.9350094E-09    2.9175711E-09    5.9721144E+06    2.3735883E-09    5.9721144E+06
   -2.03   400.000   -7.789E+00    6.0535426E+06    3.7459553E-09    2.7586145E-09    6.0535426E+06    1.3962012E-09    6.0535426E+06
   -2.02   400.000   -7.803E+00    6.2256143E+06    3.5911906E-09    2.6104436E-09    6.2256143E+06    5.9795977E-10    6.2256143E+06
   -2.01   400.000   -7.818E+00    6.4524569E+06    3.4328933E-09    2.4392617E-09    6.4524569E+06   -3.5654131E-11    6.4524569E+06
   -2.00   400.000   -7.833E+00    6.6994047E+06    3.2424545E-09    2.2192615E-09    6.6994047E+06   -5.2307709E-10    6.6994047E+06
   -1.99   400.000   -7.848E+00    6.9382367E+06    3.0073646E-09    1.9392832E-09    6.9382367E+06   -8.8253834E-10    6.9382367E+06
   -1.98   400.000   -7.863E+00    7.1515283E+06    2.7334703E-09    1.6050488E-09    7.1515283E+06   -1.1299455E-09    7.1515283E+06
   -1.97   400.000   -7.878E+00    7.3350816E+06    2.4421792E-09    1.2363462E-09    7.3350816E+06   -1.2796029E-09    7.3350816E+06
   -1.96   400.000   -7.894E+00    7.4972120E+06    2.1638278E-09    8.6054467E-10    7.4972120E+06   -1.3470107E-09    7.4972120E+06
   -1.95   400.000   -7.909E+00    7.6544746E+06    1.9293636E-09    5.0497705E-10    7.6544746E+06   -1.3515161E-09    7.6544746E+06
   -1.94   400.000   -7.925E+00    7.8249493E+06    1.7625439E-09    1.9058331E-10    7.8249493E+06   -1.3164810E-09    7.8249493E+06
   -1.93   400.000   -7.940E+00    8.0213993E+06    1.6743386E-09   -7.1787933E-11    8.0213993E+06   -1.2660402E-09    8.0213993E+06
   -1.92   400.000   -7.956E+00    8.2467323E+06    1.6605782E-09   -2.8211827E-10    8.2467323E+06   -1.2195974E-09    8.2467323E+06
   -1.91   400.000   -7.972E+00    8.4932480E+06    1.7033313E-09   -4.4940770E-10    8.4932480E+06   -1.1867238E-09    8.4932480E+06
   -1.90   400.000   -7.988E+00    8.7456731E+06    1.7758796E-09   -5.8802433E-10    8.7456731E+06   -1.1651969E-09    8.7456731E+06
   -1.89   400.000   -8.004E+00    8.9865662E+06    1.8502229E-09   -7.1311142E-10    8.9865662E+06   -1.1434233E-09    8.9865662E+06
   -1.88   400.000   -8.020E+00    9.2019010E+06    1.9049825E-09   -8.3617301E-10    9.2019010E+06   -1.1062722E-09    9.2019010E+06
   -1.87   400.000   -8.036E+00    9.3848641E+06    1.9311221E-09   -9.6203359E-10    9.3848641E+06   -1.0417480E-09    9.3848641E+06
   -1.86   400.000   -8.052E+00    9.5370007E+06    1.9336015E-09   -1.0880526E-09    9.5370007E+06   -9.4576299E-10    9.5370007E+06
   -1.85   400.000   -8.068E+00    9.6671824E+06    1.9286063E-09   -1.2058418E-09    9.6671824E+06   -8.2341296E-10    9.6671824E+06
   -1.84   400.000   -8.084E+00    9.7895563E+06    1.9374849E-09   -1.3049908E-09    9.7895563E+06   -6.8679416E-10    9.7895563E+06
   -1.83   400.000   -8.100E+00    9.9211721E+06    1.9794510E-09   -1.3774982E-09    9.9211721E+06   -5.5067471E-10    9.9211721E+06
   -1.82   400.000   -8.116E+00    1.0078817E+07    2.0653667E-09   -1.4209000E-09    1.0078817E+07   -4.2780807E-10    1.0078817E+07
   -1.81   400.000   -8.133E+00    1.0274148E+07    2.1945325E-09   -1.4381880E-09    1.0274148E+07   -3.2532008E-10    1.0274148E+07
   -1.80   400.000   -8.149E+00    1.0507547E+07    2.3553797E-09   -1.4340932E-09    1.0507547E+07   -2.4277663E-10    1.0507547E+07
   -1.79   400.000   -8.166E+00    1.0763437E+07    2.5296505E-09   -1.4095449E-09    1.0763437E+07   -1.7182737E-10    1.0763437E+07
   -1.78   400.000   -8.183E+00    1.1010670E+07    2.6986370E-09   -1.3574622E-09    1.1010670E+07   -9.7146797E-11    1.1010670E+07
   -1.77   400.000   -8.201E+00    1.1209536E+07    2.8495959E-09   -1.2623599E-09    1.1209536E+07    1.3950775E-12    1.1209536E+07
   -1.76   400.000   -8.220E+00    1.1323077E+07    2.9804559E-09   -1.1040364E-09    1.1323077E+07    1.4542230E-10    1.1323077E+07
   -1.75   400.000   -8.238E+00    1.1327660E+07    3.1013911E-09   -8.6338884E-10    1.1327660E+07    3.5427100E-10    1.1327660E+07
   -1.74   400.000   -8.257E+00    1.1218477E+07    3.2329388E-09   -5.2756195E-10    1.1218477E+07    6.4200706E-10    1.1218477E+07
   -1.73   400.000   -8.275E+00    1.1009037E+07    3.4017651E-09   -9.2467969E-11    1.1009037E+07    1.0162872E-09    1.1009037E+07
   -1.72   400.000   -8.294E+00    1.0726836E+07    3.6359610E-09    4.3758967E-10    1.0726836E+07    1.4790378E-09    1.0726836E+07
   -1.71   400.000   -8.311E+00    1.0407762E+07    3.9612453E-09    1.0521173E-09    1.0407762E+07    2.0280142E-09    1.0407762E+07
   -1.70   400.000   -8.329E+00    1.0090119E+07    4.3981936E-09    1.7370396E-09    1.0090119E+07    2.6582989E-09    1.0090119E+07
   -1.69   400.000   -8.346E+00    9.8078598E+06    4.9597503E-09    2.4766933E-09    9.8078598E+06    3.3633093E-09    9.8078598E+06
   -1.68   400.000   -8.363E+00    9.5832890E+06    5.6484951E-09    3.2548367E-09    9.5832890E+06    4.1352755E-09    9.5832890E+06
   -1.67   400.000   -8.379E+00    9.4211507E+06    6.4542604E-09    4.0551196E-09    9.4211507E+06    4.9655381E-09    9.4211507E+06
   -1.66   400.000   -8.395E+00    9.3069070E+06    7.3539193E-09    4.8622655E-09    9.3069070E+06    5.8457150E-09    9.3069070E+06
   -1.65   400.000   -8.411E+00    9.2109305E+06    8.3152202E-09    5.6651126E-09    9.2109305E+06    6.7708311E-09    9.2109305E+06
   -1.64   400.000   -8.427E+00    9.0978115E+06    9.3044388E-09    6.4607203E-09    9.0978115E+06    7.7434869E-09    9.0978115E+06
   -1.63   400.000   -8.443E+00    8.9374490E+06    1.0294183E-08    7.2559417E-09    8.9374490E+06    8.7747930E-09    8.9374490E+06
   -1.62   400.000   -8.458E+00    8.7136219E+06    1.1265794E-08    8.0621653E-09    8.7136219E+06    9.8767207E-09    8.7136219E+06
   -1.61   400.000   -8.473E+00    8.4270559E+06    1.2203036E-08    8.8823667E-09    8.4270559E+06    1.1044590E-08    8.4270559E+06
   -1.60   400.000   -8.487E+00    8.0928599E+06    1.3079412E-08    9.6953706E-09    8.0928599E+06    1.2235946E-08    8.0928599E+06
   -1.59   400.000   -8.501E+00    7.7347357E+06    1.3846865E-08    1.0446085E-08    7.7347357E+06    1.3357809E-08    7.7347357E+06
   -1.58   400.000   -8.513E+00    7.3790674E+06    1.4435138E-08    1.1049584E-08    7.3790674E+06    1.4273906E-08    7.3790674E+06
   -1.57   400.000   -8.525E+00    7.0508734E+06    1.4766957E-08    1.1411479E-08    7.0508734E+06    1.4836100E-08    7.0508734E+06
   -1.56   400.000   -8.536E+00    6.7718552E+06    1.4785675E-08    1.1458981E-08    6.7718552E+06    1.4932112E-08    6.7718552E+06
   -1.55   400.000   -8.547E+00    6.5595814E+06    1.4483195E-08    1.1170108E-08    6.5595814E+06    1.4530554E-08    6.5595814E+06
   -1.54   400.000   -8.557E+00    6.4266500E+06    1.3913340E-08    1.0587357E-08    6.4266500E+06    1.3702276E-08    6.4266501E+06
   -1.53   400.000   -8.566E+00    6.3793666E+06    1.3182938E-08    9.8093416E-09    6.3793666E+06    1.2607724E-08    6.3793667E+06
   -1.52   400.000   -8.575E+00    6.4165764E+06    1.2425118E-08    8.9650402E-09    6.4165764E+06    1.1457017E-08    6.4165765E+06
   -1.51   400.000   -8.584E+00    6.5300012E+06    1.1767448E-08    8.1823174E-09    6.5300012E+06    1.0460254E-08    6.5300013E+06
   -1.50   400.000   -8.594E+00    6.7070181E+06    1.1306449E-08    7.5612014E-09    6.7070181E+06    9.7842520E-09    6.7070183E+06
   -1.49   400.000   -8.603E+00    6.9353600E+06    1.1092986E-08    7.1563431E-09    6.9353600E+06    9.5230916E-09    6.9353603E+06
   -1.48   400.000   -8.612E+00    7.2076562E+06    1.1126907E-08    6.9682328E-09    7.2076562E+06    9.6825770E-09    7.2076565E+06
   -1.47   400.000   -8.622E+00    7.5232960E+06    1.1357845E-08    6.9419792E-09    7.5232960E+06    1.0177322E-08    7.5232964E+06
   -1.46   400.000   -8.633E+00    7.8864087E+06    1.1691532E-08    6.9743794E-09    7.8864087E+06    1.0841842E-08    7.8864092E+06
   -1.45   400.000   -8.644E+00    8.3011391E+06    1.2003864E-08    6.9313959E-09    8.3011391E+06    1.1458847E-08    8.3011399E+06
   -1.44   400.000   -8.655E+00    8.7670383E+06    1.2164597E-08    6.6764606E-09    8.7670383E+06    1.1804856E-08    8.7670393E+06
   -1.43   400.000   -8.667E+00    9.2767573E+06    1.2067690E-08    6.1049001E-09    9.2767573E+06    1.1704975E-08    9.2767587E+06
   -1.42   400.000   -8.680E+00    9.8159070E+06    1.1658699E-08    5.1740682E-09    9.8159070E+06    1.1079936E-08    9.8159088E+06
   -1.41   400.000   -8.694E+00    1.0363280E+07    1.0947496E-08    3.9174389E-09    1.0363280E+07    9.9668976E-09    1.0363283E+07
   -1.40   400.000   -8.709E+00    1.0890318E+07    1.0000541E-08    2.4367349E-09    1.0890318E+07    8.5050251E-09    1.0890322E+07
   -1.39   400.000   -8.725E+00    1.1360864E+07    8.9174177E-09    8.7595960E-10    1.1360864E+07    6.8923722E-09    1.1360868E+07
   -1.38   400.000   -8.741E+00    1.1733534E+07    7.8034683E-09   -6.1178978E-10    1.1733534E+07    5.3317258E-09    1.1733540E+07
   -1.37   400.000   -8.758E+00    1.1968190E+07    6.7496270E-09   -1.8934225E-09    1.1968190E+07    3.9842983E-09    1.1968198E+07
   -1.36   400.000   -8.776E+00    1.2035547E+07    5.8241593E-09   -2.8740472E-09    1.2035547E+07    2.9437702E-09    1.2035557E+07
   -1.35   400.000   -8.794E+00    1.1926570E+07    5.0741804E-09   -3.5028493E-09    1.1926570E+07    2.2342517E-09    1.1926584E+07
   -1.34   400.000   -8.811E+00    1.1657437E+07    4.5313556E-09   -3.7690415E-09    1.1657437E+07    1.8275440E-09    1.1657455E+07
   -1.33   400.000   -8.829E+00    1.1267332E+07    4.2167645E-09   -3.6918732E-09    1.1267332E+07    1.6696361E-09    1.1267357E+07
   -1.32   400.000   -8.846E+00    1.0809702E+07    4.1429527E-09   -3.3085687E-09    1.0809702E+07    1.7054194E-09    1.0809735E+07
   -1.31   400.000   -8.862E+00    1.0340673E+07    4.3141424E-09   -2.6630574E-09    1.0340673E+07    1.8943382E-09    1.0340717E+07
   -1.30   400.000   -8.877E+00    9.9089725E+06    4.7265684E-09   -1.7972023E-09    9.9089725E+06    2.2156028E-09    9.9090321E+06
   -1.29   400.000   -8.892E+00    9.5498240E+06    5.3699307E-09   -7.4526733E-10    9.5498240E+06    2.6660197E-09    9.5499036E+06
   -1.28   400.000   -8.906E+00    9.2829972E+06    6.2294322E-09    4.6821295E-10    9.2829972E+06    3.2543768E-09    9.2831037E+06
   -1.27   400.000   -8.920E+00    9.1142228E+06    7.2870545E-09    1.8270313E-09    9.1142228E+06    3.9944343E-09    9.1143650E+06
   -1.26   400.000   -8.933E+00    9.0391357E+06    8.5207476E-09    3.3180002E-09    9.0391357E+06    4.8962687E-09    9.0393256E+06
   -1.25   400.000   -8.945E+00    9.0483417E+06    9.9006518E-09    4.9216705E-09    9.0483417E+06    5.9551198E-09    9.0485952E+06
   -1.24   400.000   -8.958E+00    9.1310510E+06    1.1382322E-08    6.6005034E-09    9.1310510E+06    7.1385993E-09    9.1313894E+06
   -1.23   400.000   -8.970E+00    9.2747362E+06    1.2898654E-08    8.2882608E-09    9.2747362E+06    8.3762226E-09    9.2751875E+06
   -1.22   400.000   -8.983E+00    9.4606739E+06    1.4354851E-08    9.8863227E-09    9.4606739E+06    9.5577300E-09    9.4612755E+06
   -1.21   400.000   -8.995E+00    9.6587358E+06    1.5632713E-08    1.1272570E-08    9.6587358E+06    1.0546429E-08    9.6595370E+06
   -1.20   400.000   -9.008E+00    9.8264142E+06    1.6608791E-08    1.2324774E-08    9.8264142E+06    1.1209143E-08    9.8274800E+06
   -1.19   400.000   -9.020E+00    9.9150164E+06    1.7183881E-08    1.2952944E-08    9.9150164E+06    1.1455505E-08    9.9164320E+06
   -1.18   400.000   -9.033E+00    9.8814647E+06    1.7312359E-08    1.3127410E-08    9.8814647E+06    1.1270460E-08    9.8833410E+06
   -1.17   400.000   -9.046E+00    9.7005018E+06    1.7016590E-08    1.2888345E-08    9.7005018E+06    1.0722400E-08    9.7029817E+06
   -1.16   400.000   -9.058E+00    9.3718491E+06    1.6378801E-08    1.2331389E-08    9.3718491E+06    9.9398297E-09    9.3751147E+06
   -1.15   400.000   -9.071E+00    8.9197137E+06    1.5515539E-08    1.1577346E-08    8.9197137E+06    9.0667150E-09    8.9239934E+06
   -1.14   400.000   -9.083E+00    8.3856829E+06    1.4547984E-08    1.0741247E-08    8.3856829E+06    8.2184500E-09    8.3912563E+06
   -1.13   400.000   -9.094E+00    7.8184181E+06    1.3579836E-08    9.9127862E-09    7.8184181E+06    7.4583319E-09    7.8256171E+06
   -1.12   400.000   -9.105E+00    7.2639936E+06    1.2686928E-08    9.1509114E-09    7.2639936E+06    6.8006371E-09    7.2731945E+06
   -1.11   400.000   -9.115E+00    6.7595178E+06    1.1915963E-08    8.4878424E-09    6.7595178E+06    6.2312594E-09    6.7711200E+06
   -1.10   400.000   -9.125E+00    6.3306731E+06    1.1287531E-08    7.9359075E-09    6.3306731E+06    5.7302575E-09    6.3450582E+06
   -1.09   400.000   -9.135E+00    5.9922538E+06    1.0800464E-08    7.4933061E-09    5.9922538E+06    5.2850369E-09    6.0097217E+06
   -1.08   400.000   -9.144E+00    5.7505115E+06    1.0437935E-08    7.1489298E-09    5.7505115E+06    4.8925361E-09    5.7711980E+06
   -1.07   400.000   -9.153E+00    5.6066541E+06    1.0177121E-08    6.8883194E-09    5.6066541E+06    4.5556968E-09    5.6304444E+06
   -1.06   400.000   -9.162E+00    5.5609103E+06    1.0002028E-08    6.7014221E-09    5.5609103E+06    4.2800847E-09    5.5873796E+06
   -1.05   400.000   -9.170E+00    5.6157961E+06    9.9149792E-09    6.5896536E-09    5.6157961E+06    4.0729955E-09    5.6442107E+06
   -1.04   400.000   -9.179E+00    5.7767054E+06    9.9402827E-09    6.5680279E-09    5.7767054E+06    3.9440111E-09    5.8061094E+06
   -1.03   400.000   -9.188E+00    6.0488727E+06    1.0116399E-08    6.6597058E-09    6.0488727E+06    3.9050970E-09    6.0782509E+06
   -1.02   400.000   -9.197E+00    6.4317576E+06    1.0478751E-08    6.8841525E-09    6.4317576E+06    3.9694225E-09    6.4602316E+06
   -1.01   400.000   -9.206E+00    6.9134261E+06    1.1040030E-08    7.2434333E-09    6.9134261E+06    4.1492585E-09    6.9404223E+06
   -1.00   400.000   -9.216E+00    7.4675340E+06    1.1775818E-08    7.7122132E-09    7.4675340E+06    4.4534497E-09    7.4928807E+06
   -0.99   400.000   -9.226E+00    8.0543991E+06    1.2621230E-08    8.2358675E-09    8.0543991E+06    4.8844167E-09    8.0783429E+06
   -0.98   400.000   -9.236E+00    8.6262694E+06    1.3480559E-08    8.7384517E-09    8.6262694E+06    5.4345337E-09    8.6494357E+06
   -0.97   400.000   -9.248E+00    9.1357262E+06    1.4247569E-08    9.1387668E-09    9.1357262E+06    6.0826259E-09    9.1590554E+06
   -0.96   400.000   -9.259E+00    9.5451506E+06    1.4830285E-08    9.3696245E-09    9.5451506E+06    6.7927633E-09    9.5698385E+06
   -0.95   400.000   -9.271E+00    9.8344545E+06    1.5172741E-08    9.3945048E-09    9.8344545E+06    7.5181521E-09    9.8619048E+06
   -0.94   400.000   -9.283E+00    1.0004231E+07    1.5267887E-08    9.2176030E-09    1.0004231E+07    8.2115110E-09    1.0036015E+07
   -0.93   400.000   -9.296E+00    1.0072594E+07    1.5159121E-08    8.8858840E-09    1.0072594E+07    8.8399142E-09    1.0110397E+07
   -0.92   400.000   -9.308E+00    1.0066360E+07    1.4930629E-08    8.4830856E-09    1.0066360E+07    9.3987930E-09    1.0111892E+07
   -0.91   400.000   -9.320E+00    1.0010078E+07    1.4688924E-08    8.1159778E-09    1.0010078E+07    9.9193707E-09    1.0064918E+07
   -0.90   400.000   -9.333E+00    9.9179488E+06    1.4540092E-08    7.8943454E-09    9.9179488E+06    1.0466500E-08    9.9833053E+06
   -0.89   400.000   -9.345E+00    9.7921645E+06    1.4568325E-08    7.9082420E-09    9.7921645E+06    1.1126625E-08    9.8685720E+06
   -0.88   400.000   -9.358E+00    9.6273465E+06    1.4819822E-08    8.2074084E-09    9.6273465E+06    1.1986125E-08    9.7143421E+06
   -0.87   400.000   -9.370E+00    9.4173849E+06    1.5293306E-08    8.7872519E-09    9.4173849E+06    1.3100813E-08    9.5132809E+06
   -0.86   400.000   -9.382E+00    9.1606458E+06    1.5936895E-08    9.5842089E-09    9.1606458E+06    1.4461683E-08    9.2625247E+06
   -0.85   400.000   -9.394E+00    8.8618655E+06    1.6652337E-08    1.0482112E-08    8.8618655E+06    1.5969746E-08    8.9658847E+06
   -0.84   400.000   -9.405E+00    8.5316024E+06    1.7309573E-08    1.1330595E-08    8.5316024E+06    1.7437102E-08    8.6335763E+06
   -0.83   400.000   -9.417E+00    8.1849208E+06    1.7773499E-08    1.1974854E-08    8.1849208E+06    1.8624714E-08    8.2810158E+06
   -0.82   400.000   -9.428E+00    7.8401465E+06    1.7938561E-08    1.2291400E-08    7.8401465E+06    1.9308780E-08    7.9274639E+06
   -0.81   400.000   -9.439E+00    7.5173781E+06    1.7758644E-08    1.2218294E-08    7.5173781E+06    1.9347943E-08    7.5942613E+06
   -0.80   400.000   -9.450E+00    7.2360458E+06    1.7257460E-08    1.1766772E-08    7.2360458E+06    1.8718960E-08    7.3020791E+06
   -0.79   400.000   -9.460E+00    7.0114398E+06    1.6513229E-08    1.1008532E-08    7.0114398E+06    1.7506082E-08    7.0672266E+06
   -0.78   400.000   -9.471E+00    6.8511395E+06    1.5625966E-08    1.0045630E-08    6.8511395E+06    1.5856918E-08    6.8979906E+06
   -0.77   400.000   -9.481E+00    6.7527205E+06    1.4684633E-08    8.9782262E-09    6.7527205E+06    1.3933709E-08    6.7923615E+06
   -0.76   400.000   -9.491E+00    6.7036279E+06    1.3748256E-08    7.8835440E-09    6.7036279E+06    1.1883364E-08    6.7379848E+06
   -0.75   400.000   -9.501E+00    6.6832759E+06    1.2844100E-08    6.8103890E-09    6.6832759E+06    9.8311225E-09    6.7143535E+06
   -0.74   400.000   -9.510E+00    6.6670381E+06    1.1976601E-08    5.7851013E-09    6.6670381E+06    7.8871035E-09    6.6968787E+06
   -0.73   400.000   -9.520E+00    6.6318379E+06    1.1138513E-08    4.8214882E-09    6.6318379E+06    6.1514331E-09    6.6625394E+06
   -0.72   400.000   -9.529E+00    6.5627196E+06    1.0319461E-08    3.9289061E-09    6.5627196E+06    4.7102333E-09    6.5964897E+06
   -0.71   400.000   -9.538E+00    6.4586753E+06    9.5115689E-09    3.1160797E-09    6.4586753E+06    3.6243021E-09    6.4979007E+06
   -0.70   400.000   -9.547E+00    6.3351049E+06    8.7136347E-09    2.3909911E-09    6.3351049E+06    2.9179261E-09    6.3824135E+06
   -0.69   400.000   -9.556E+00    6.2210683E+06    7.9344089E-09    1.7585721E-09    6.2210683E+06    2.5745632E-09    6.2793580E+06
   -0.68   400.000   -9.564E+00    6.1518704E+06    7.1939128E-09    1.2183514E-09    6.1518704E+06    2.5413878E-09    6.2242696E+06
   -0.67   400.000   -9.573E+00    6.1596933E+06    6.5212261E-09    7.6387642E-10    6.1596933E+06    2.7401738E-09    6.2494108E+06
   -0.66   400.000   -9.581E+00    6.2654133E+06    5.9483602E-09    3.8476296E-10    6.2654133E+06    3.0805416E-09    6.3754331E+06
   -0.65   400.000   -9.590E+00    6.4735481E+06    5.5019446E-09    7.0965267E-11    6.4735481E+06    3.4728691E-09    6.6061435E+06
   -0.64   400.000   -9.599E+00    6.7707646E+06    5.1957572E-09   -1.8230524E-10    6.7707646E+06    3.8398203E-09    6.9268612E+06
   -0.63   400.000   -9.608E+00    7.1275865E+06    5.0265705E-09   -3.7139121E-10    7.1275865E+06    4.1257224E-09    7.3060923E+06
   -0.62   400.000   -9.618E+00    7.5029455E+06    4.9740160E-09   -4.8515256E-10    7.5029455E+06    4.3022051E-09    7.7002740E+06
   -0.61   400.000   -9.627E+00    7.8512610E+06    5.0038138E-09   -5.1098724E-10    7.8512610E+06    4.3683376E-09    8.0613164E+06
   -0.60   400.000   -9.638E+00    8.1310159E+06    5.0737662E-09   -4.4353334E-10    8.1310159E+06    4.3450720E-09    8.3458184E+06
   -0.59   400.000   -9.648E+00    8.3124815E+06    5.1426077E-09   -2.9047858E-10    8.3124815E+06    4.2661913E-09    8.5233681E+06
   -0.58   400.000   -9.659E+00    8.3815802E+06    5.1812039E-09   -7.0263390E-11    8.3815802E+06    4.1690700E-09    8.5806404E+06
   -0.57   400.000   -9.669E+00    8.3381662E+06    5.1829406E-09    1.9804601E-10    8.3381662E+06    4.0874694E-09    8.5194479E+06
   -0.56   400.000   -9.680E+00    8.1901105E+06    5.1678365E-09    5.0556179E-10    8.1901105E+06    4.0466608E-09    8.3502568E+06
   -0.55   400.000   -9.690E+00    7.9473854E+06    5.1767285E-09    8.5648638E-10    7.9473854E+06    4.0604180E-09    8.0856376E+06
   -0.54   400.000   -9.700E+00    7.6202871E+06    5.2579669E-09    1.2610525E-09    7.6202871E+06    4.1302384E-09    7.7380319E+06
   -0.53   400.000   -9.710E+00    7.2225994E+06    5.4543284E-09    1.7249801E-09    7.2225994E+06    4.2479150E-09    7.3227327E+06
   -0.52   400.000   -9.719E+00    6.7765049E+06    5.7970140E-09    2.2442696E-09    6.7765049E+06    4.4015914E-09    6.8628364E+06
   -0.51   400.000   -9.728E+00    6.3147050E+06    6.3071484E-09    2.8083833E-09    6.3147050E+06    4.5830526E-09    6.3915238E+06
   -0.50   400.000   -9.736E+00    5.8773542E+06    6.9990563E-09    3.4071556E-09    5.8773542E+06    4.7924596E-09    5.9491827E+06
# T(K) = 500.00   Npoints =     901   V(cm^3) =  3.483E-22
   -9.50   500.000    1.594E+01    5.6544553E+05    1.8020938E-08    1.7752070E-08    5.6544553E+05    4.4904887E-08    5.6544553E+05
   -9.49   500.000    1.594E+01    6.1492210E+05    1.8217977E-08    1.7919576E-08    6.1492210E+05    4.8137571E-08    6.1492210E+05
   -9.48   500.000    1.593E+01    6.6880477E+05    1.8395120E-08    1.8066545E-08    6.6880477E+05    5.1495594E-08    6.6880477E+05
   -9.47   500.000    1.593E+01    7.2634622E+05    1.8566619E-08    1.8208518E-08    7.2634622E+05    5.4877250E-08    7.2634622E+05
   -9.46   500.000    1.592E+01    7.8626321E+05    1.8719169E-08    1.8333579E-08    7.8626321E+05    5.8100112E-08    7.8626321E+05
   -9.45   500.000    1.592E+01    8.4674622E+05    1.8814341E-08    1.8404710E-08    8.4674622E+05    6.0912573E-08    8.4674622E+05
   -9.44   500.000    1.591E+01    9.0559186E+05    1.8797446E-08    1.8368553E-08    9.0559186E+05    6.3027158E-08    9.0559186E+05
   -9.43   500.000    1.591E+01    9.6045458E+05    1.8611081E-08    1.8168801E-08    9.6045458E+05    6.4171068E-08    9.6045458E+05
   -9.42   500.000    1.590E+01    1.0091620E+06    1.8210077E-08    1.7760972E-08    1.0091620E+06    6.4142052E-08    1.0091620E+06
   -9.41   500.000    1.590E+01    1.0500018E+06    1.7573668E-08    1.7124430E-08    1.0500018E+06    6.2853201E-08    1.0500018E+06
   -9.40   500.000    1.589E+01    1.0819032E+06    1.6711288E-08    1.6268122E-08    1.0819032E+06    6.0352199E-08    1.0819032E+06
   -9.39   500.000    1.589E+01    1.1044956E+06    1.5660567E-08    1.5228630E-08    1.1044956E+06    5.6809300E-08    1.1044956E+06
   -9.38   500.000    1.588E+01    1.1181007E+06    1.4478916E-08    1.4061898E-08    1.1181007E+06    5.2479833E-08    1.1181007E+06
   -9.37   500.000    1.588E+01    1.1237334E+06    1.3232131E-08    1.2832022E-08    1.1237334E+06    4.7655331E-08    1.1237334E+06
   -9.36   500.000    1.587E+01    1.1231482E+06    1.1983698E-08    1.1600695E-08    1.1231482E+06    4.2618492E-08    1.1231482E+06
   -9.35   500.000    1.586E+01    1.1188841E+06    1.0787194E-08    1.0419698E-08    1.1188841E+06    3.7611979E-08    1.1188841E+06
   -9.34   500.000    1.586E+01    1.1142166E+06    9.6823947E-09    9.3270301E-09    1.1142166E+06    3.2823580E-08    1.1142166E+06
   -9.33   500.000    1.585E+01    1.1129350E+06    8.6943227E-09    8.3459538E-09    1.1129350E+06    2.8384524E-08    1.1129350E+06
   -9.32   500.000    1.585E+01    1.1189386E+06    7.8340784E-09    7.4858341E-09    1.1189386E+06    2.4375558E-08    1.1189386E+06
   -9.31   500.000    1.584E+01    1.1357278E+06    7.1005621E-09    6.7438936E-09    1.1357278E+06    2.0836129E-08    1.1357278E+06
   -9.30   500.000    1.584E+01    1.1659160E+06    6.4827540E-09    6.1075692E-09    1.1659160E+06    1.7773885E-08    1.1659160E+06
   -9.29   500.000    1.583E+01    1.2108817E+06    5.9625927E-09    5.5575113E-09    1.2108817E+06    1.5173421E-08    1.2108817E+06
   -9.28   500.000    1.583E+01    1.2706287E+06    5.5185233E-09    5.0712965E-09    1.2706287E+06    1.3004032E-08    1.2706287E+06
   -9.27   500.000    1.582E+01    1.3438547E+06    5.1294870E-09    4.6276228E-09    1.3438547E+06    1.1226440E-08    1.3438547E+06
   -9.26   500.000    1.581E+01    1.4281673E+06    4.7787192E-09    4.2103420E-09    1.4281673E+06    9.7983114E-09    1.4281673E+06
   -9.25   500.000    1.581E+01    1.5203574E+06    4.4564722E-09    3.8114196E-09    1.5203574E+06    8.6782986E-09    1.5203574E+06
   -9.24   500.000    1.580E+01    1.6166519E+06    4.1609271E-09    3.4320404E-09    1.6166519E+06    7.8285019E-09    1.6166519E+06
   -9.23   500.000    1.579E+01    1.7129160E+06    3.8971091E-09    3.0816037E-09    1.7129160E+06    7.2155500E-09    1.7129160E+06
   -9.22   500.000    1.578E+01    1.8048381E+06    3.6743410E-09    2.7750589E-09    1.8048381E+06    6.8108349E-09    1.8048381E+06
   -9.21   500.000    1.577E+01    1.8881683E+06    3.5032738E-09    2.5295458E-09    1.8881683E+06    6.5905337E-09    1.8881683E+06
   -9.20   500.000    1.576E+01    1.9590725E+06    3.3935839E-09    2.3614004E-09    1.9590725E+06    6.5358598E-09    1.9590725E+06
   -9.19   500.000    1.575E+01    2.0145971E+06    3.3530092E-09    2.2842794E-09    2.0145971E+06    6.6336157E-09    2.0145971E+06
   -9.18   500.000    1.574E+01    2.0531568E+06    3.3877785E-09    2.3086532E-09    2.0531568E+06    6.8768013E-09    2.0531568E+06
   -9.17   500.000    1.573E+01    2.0748954E+06    3.5039545E-09    2.4424584E-09    2.0748954E+06    7.2649397E-09    2.0748954E+06
   -9.16   500.000    1.572E+01    2.0817875E+06    3.7089756E-09    2.6924136E-09    2.0817875E+06    7.8039266E-09    2.0817875E+06
   -9.15   500.000    1.571E+01    2.0774333E+06    4.0127581E-09    3.0654219E-09    2.0774333E+06    8.5054411E-09    2.0774333E+06
   -9.14   500.000    1.570E+01    2.0666058E+06    4.4279971E-09    3.5695650E-09    2.0666058E+06    9.3860937E-09    2.0666058E+06
   -9.13   500.000    1.568E+01    2.0546762E+06    4.9696086E-09    4.2143732E-09    2.0546762E+06    1.0466432E-08    2.0546762E+06
   -9.12   500.000    1.567E+01    2.0470337E+06    5.6534527E-09    5.0102615E-09    2.0470337E+06    1.1769729E-08    2.0470337E+06
   -9.11   500.000    1.566E+01    2.0485573E+06    6.4945340E-09    5.9671849E-09    2.0485573E+06    1.3320287E-08    2.0485573E+06
   -9.10   500.000    1.564E+01    2.0631566E+06    7.5048203E-09    7.0926487E-09    2.0631566E+06    1.5140965E-08    2.0631566E+06
   -9.09   500.000    1.563E+01    2.0933924E+06    8.6907365E-09    8.3892186E-09    2.0933924E+06    1.7249814E-08    2.0933924E+06
   -9.08   500.000    1.561E+01    2.1402248E+06    1.0050340E-08    9.8516539E-09    2.1402248E+06    1.9656015E-08    2.1402248E+06
   -9.07   500.000    1.560E+01    2.2029485E+06    1.1570233E-08    1.1463798E-08    2.2029485E+06    2.2355571E-08    2.2029485E+06
   -9.06   500.000    1.558E+01    2.2793483E+06    1.3222438E-08    1.3195476E-08    2.2793483E+06    2.5327289E-08    2.2793483E+06
   -9.05   500.000    1.556E+01    2.3660382E+06    1.4961812E-08    1.4999939E-08    2.3660382E+06    2.8529532E-08    2.3660382E+06
   -9.04   500.000    1.554E+01    2.4588803E+06    1.6724985E-08    1.6812799E-08    2.4588803E+06    3.1898138E-08    2.4588803E+06
   -9.03   500.000    1.552E+01    2.5533665E+06    1.8432176E-08    1.8553768E-08    2.5533665E+06    3.5345891E-08    2.5533665E+06
   -9.02   500.000    1.550E+01    2.6448933E+06    1.9993084E-08    2.0132431E-08    2.6448933E+06    3.8764003E-08    2.6448933E+06
   -9.01   500.000    1.547E+01    2.7289448E+06    2.1317116E-08    2.1458378E-08    2.7289448E+06    4.2026108E-08    2.7289448E+06
   -9.00   500.000    1.545E+01    2.8012730E+06    2.2326602E-08    2.2454395E-08    2.8012730E+06    4.4995209E-08    2.8012730E+06
   -8.99   500.000    1.542E+01    2.8581804E+06    2.2969951E-08    2.3069732E-08    2.8581804E+06    4.7533726E-08    2.8581804E+06
   -8.98   500.000    1.539E+01    2.8969504E+06    2.3231040E-08    2.3289671E-08    2.8969504E+06    4.9516336E-08    2.8969504E+06
   -8.97   500.000    1.536E+01    2.9163569E+06    2.3131980E-08    2.3138471E-08    2.9163569E+06    5.0844398E-08    2.9163569E+06
   -8.96   500.000    1.533E+01    2.9170806E+06    2.2728481E-08    2.2674783E-08    2.9170806E+06    5.1459718E-08    2.9170806E+06
   -8.95   500.000    1.530E+01    2.9018269E+06    2.2099342E-08    2.1980980E-08    2.9018269E+06    5.1354521E-08    2.9018269E+06
   -8.94   500.000    1.527E+01    2.8750238E+06    2.1333089E-08    2.1149422E-08    2.8750238E+06    5.0574565E-08    2.8750238E+06
   -8.93   500.000    1.524E+01    2.8421348E+06    2.0515086E-08    2.0269062E-08    2.8421348E+06    4.9213557E-08    2.8421348E+06
   -8.92   500.000    1.521E+01    2.8087720E+06    1.9717624E-08    1.9415061E-08    2.8087720E+06    4.7399296E-08    2.8087720E+06
   -8.91   500.000    1.518E+01    2.7798575E+06    1.8994223E-08    1.8642767E-08    2.7798575E+06    4.5274494E-08    2.7798575E+06
   -8.90   500.000    1.515E+01    2.7590354E+06    1.8377943E-08    1.7985942E-08    2.7590354E+06    4.2976762E-08    2.7590354E+06
   -8.89   500.000    1.512E+01    2.7484136E+06    1.7882547E-08    1.7458039E-08    2.7484136E+06    4.0622223E-08    2.7484136E+06
   -8.88   500.000    1.509E+01    2.7485780E+06    1.7504910E-08    1.7054848E-08    2.7485780E+06    3.8295577E-08    2.7485780E+06
   -8.87   500.000    1.506E+01    2.7587366E+06    1.7227434E-08    1.6757179E-08    2.7587366E+06    3.6047210E-08    2.7587366E+06
   -8.86   500.000    1.502E+01    2.7768640E+06    1.7020023E-08    1.6533076E-08    2.7768640E+06    3.3896124E-08    2.7768640E+06
   -8.85   500.000    1.499E+01    2.7998092E+06    1.6842153E-08    1.6340072E-08    2.7998092E+06    3.1836692E-08    2.7998092E+06
   -8.84   500.000    1.496E+01    2.8234372E+06    1.6646112E-08    1.6128600E-08    2.8234372E+06    2.9847390E-08    2.8234372E+06
   -8.83   500.000    1.494E+01    2.8429248E+06    1.6382312E-08    1.5847423E-08    2.8429248E+06    2.7900222E-08    2.8429248E+06
   -8.82   500.000    1.491E+01    2.8532824E+06    1.6006591E-08    1.5451035E-08    2.8532824E+06    2.5969980E-08    2.8532824E+06
   -8.81   500.000    1.488E+01    2.8500567E+06    1.5488204E-08    1.4907675E-08    2.8500567E+06    2.4042464E-08    2.8500567E+06
   -8.80   500.000    1.485E+01    2.8300553E+06    1.4816293E-08    1.4205768E-08    2.8300553E+06    2.2120517E-08    2.8300553E+06
   -8.79   500.000    1.483E+01    2.7919007E+06    1.4002732E-08    1.3356678E-08    2.7919007E+06    2.0226612E-08    2.7919007E+06
   -8.78   500.000    1.480E+01    2.7362779E+06    1.3080305E-08    1.2392770E-08    2.7362779E+06    1.8401137E-08    2.7362779E+06
   -8.77   500.000    1.478E+01    2.6658473E+06    1.2096783E-08    1.1361376E-08    2.6658473E+06    1.6696572E-08    2.6658473E+06
   -8.76   500.000    1.475E+01    2.5848918E+06    1.1106714E-08    1.0316517E-08    2.5848918E+06    1.5168920E-08    2.5848918E+06
   -8.75   500.000    1.473E+01    2.4987987E+06    1.0163154E-08    9.3106246E-09    2.4987987E+06    1.3868553E-08    2.4987987E+06
   -8.74   500.000    1.471E+01    2.4134553E+06    9.3110652E-09    8.3880457E-09    2.4134553E+06    1.2832615E-08    2.4134553E+06
   -8.73   500.000    1.469E+01    2.3346036E+06    8.5832360E-09    7.5811520E-09    2.3346036E+06    1.2080346E-08    2.3346036E+06
   -8.72   500.000    1.467E+01    2.2671930E+06    7.9986607E-09    6.9090140E-09    2.2671930E+06    1.1611678E-08    2.2671930E+06
   -8.71   500.000    1.466E+01    2.2147831E+06    7.5628334E-09    6.3780292E-09    2.2147831E+06    1.1408537E-08    2.2147831E+06
   -8.70   500.000    1.464E+01    2.1790707E+06    7.2692527E-09    5.9837417E-09    2.1790707E+06    1.1437945E-08    2.1790707E+06
   -8.69   500.000    1.462E+01    2.1596082E+06    7.1015530E-09    5.7131900E-09    2.1596082E+06    1.1656126E-08    2.1596082E+06
   -8.68   500.000    1.461E+01    2.1537672E+06    7.0358877E-09    5.5473246E-09    2.1537672E+06    1.2013146E-08    2.1537672E+06
   -8.67   500.000    1.459E+01    2.1569834E+06    7.0433866E-09    5.4632423E-09    2.1569834E+06    1.2457823E-08    2.1569834E+06
   -8.66   500.000    1.458E+01    2.1633027E+06    7.0926481E-09    5.4361379E-09    2.1633027E+06    1.2942578E-08    2.1633027E+06
   -8.65   500.000    1.457E+01    2.1662182E+06    7.1522774E-09    5.4409956E-09    2.1662182E+06    1.3427566E-08    2.1662182E+06
   -8.64   500.000    1.455E+01    2.1597155E+06    7.1934509E-09    5.4541136E-09    2.1597155E+06    1.3883232E-08    2.1597155E+06
   -8.63   500.000    1.454E+01    2.1393515E+06    7.1923680E-09    5.4545583E-09    2.1393515E+06    1.4290619E-08    2.1393515E+06
   -8.62   500.000    1.453E+01    2.1031158E+06    7.1322762E-09    5.4255222E-09    2.1031158E+06    1.4639275E-08    2.1031158E+06
   -8.61   500.000    1.452E+01    2.0518309E+06    7.0046150E-09    5.3553727E-09    2.0518309E+06    1.4923342E-08    2.0518309E+06
   -8.60   500.000    1.451E+01    1.9889512E+06    6.8088870E-09    5.2380639E-09    1.9889512E+06    1.5136957E-08    1.9889512E+06
   -8.59   500.000    1.450E+01    1.9198076E+06    6.5511971E-09    5.0727083E-09    1.9198076E+06    1.5270430E-08    1.9198076E+06
   -8.58   500.000    1.449E+01    1.8505196E+06    6.2419044E-09    4.8624478E-09    1.8505196E+06    1.5308645E-08    1.8505196E+06
   -8.57   500.000    1.448E+01    1.7868817E+06    5.8931955E-09    4.6131005E-09    1.7868817E+06    1.5232684E-08    1.7868817E+06
   -8.56   500.000    1.447E+01    1.7334901E+06    5.5173568E-09    4.3321294E-09    1.7334901E+06    1.5024584E-08    1.7334901E+06
   -8.55   500.000    1.446E+01    1.6932376E+06    5.1260762E-09    4.0281915E-09    1.6932376E+06    1.4673748E-08    1.6932376E+06
   -8.54   500.000    1.445E+01    1.6671601E+06    4.7305219E-09    3.7110844E-09    1.6671601E+06    1.4182410E-08    1.6671601E+06
   -8.53   500.000    1.445E+01    1.6545306E+06    4.3415801E-09    3.3916202E-09    1.6545306E+06    1.3567625E-08    1.6545306E+06
   -8.52   500.000    1.444E+01    1.6530951E+06    3.9696769E-09    3.0810051E-09    1.6530951E+06    1.2858578E-08    1.6530951E+06
   -8.51   500.000    1.443E+01    1.6594003E+06    3.6239756E-09    2.7896295E-09    1.6594003E+06    1.2090077E-08    1.6594003E+06
   -8.50   500.000    1.442E+01    1.6692158E+06    3.3111665E-09    2.5255477E-09    1.6692158E+06    1.1294709E-08    1.6692158E+06
   -8.49   500.000    1.442E+01    1.6780649E+06    3.0343258E-09    2.2931455E-09    1.6780649E+06    1.0496545E-08    1.6780649E+06
   -8.48   500.000    1.441E+01    1.6818397E+06    2.7923404E-09    2.0924722E-09    1.6818397E+06    9.7083856E-09    1.6818397E+06
   -8.47   500.000    1.440E+01    1.6774141E+06    2.5802158E-09    1.9195101E-09    1.6774141E+06    8.9330136E-09    1.6774141E+06
   -8.46   500.000    1.439E+01    1.6631246E+06    2.3902995E-09    1.7673606E-09    1.6631246E+06    8.1674162E-09    1.6631246E+06
   -8.45   500.000    1.439E+01    1.6389912E+06    2.2141345E-09    1.6280344E-09    1.6389912E+06    7.4080582E-09    1.6389912E+06
   -8.44   500.000    1.438E+01    1.6066190E+06    2.0444229E-09    1.4943412E-09    1.6066190E+06    6.6552264E-09    1.6066190E+06
   -8.43   500.000    1.437E+01    1.5688173E+06    1.8765252E-09    1.3613557E-09    1.5688173E+06    5.9151148E-09    1.5688173E+06
   -8.42   500.000    1.437E+01    1.5290657E+06    1.7091054E-09    1.2271164E-09    1.5290657E+06    5.1993667E-09    1.5290657E+06
   -8.41   500.000    1.436E+01    1.4909894E+06    1.5438698E-09    1.0925026E-09    1.4909894E+06    4.5227502E-09    1.4909894E+06
   -8.40   500.000    1.435E+01    1.4579768E+06    1.3846662E-09    9.6050483E-10    1.4579768E+06    3.9001446E-09    1.4579768E+06
   -8.39   500.000    1.434E+01    1.4329862E+06    1.2363685E-09    8.3523417E-10    1.4329862E+06    3.3439340E-09    1.4329862E+06
   -8.38   500.000    1.434E+01    1.4185010E+06    1.1039191E-09    7.2099387E-10    1.4185010E+06    2.8624349E-09    1.4185010E+06
   -8.37   500.000    1.433E+01    1.4165318E+06    9.9173156E-10    6.2161506E-10    1.4165318E+06    2.4594327E-09    1.4165318E+06
   -8.36   500.000    1.432E+01    1.4285601E+06    9.0345451E-10    5.4011824E-10    1.4285601E+06    2.1345417E-09    1.4285601E+06
   -8.35   500.000    1.431E+01    1.4553724E+06    8.4196998E-10    4.7865397E-10    1.4553724E+06    1.8839827E-09    1.4553724E+06
   -8.34   500.000    1.430E+01    1.4968164E+06    8.0945846E-10    4.3861849E-10    1.4968164E+06    1.7014464E-09    1.4968164E+06
   -8.33   500.000    1.430E+01    1.5515800E+06    8.0740543E-10    4.2083041E-10    1.5515800E+06    1.5788560E-09    1.5515800E+06
   -8.32   500.000    1.429E+01    1.6171215E+06    8.3650822E-10    4.2567908E-10    1.6171215E+06    1.5069814E-09    1.6171215E+06
   -8.31   500.000    1.428E+01    1.6898486E+06    8.9652419E-10    4.5319701E-10    1.6898486E+06    1.4759530E-09    1.6898486E+06
   -8.30   500.000    1.427E+01    1.7655664E+06    9.8614759E-10    5.0304809E-10    1.7655664E+06    1.4757496E-09    1.7655664E+06
   -8.29   500.000    1.425E+01    1.8401249E+06    1.1029944E-09    5.7444794E-10    1.8401249E+06    1.4967092E-09    1.8401249E+06
   -8.28   500.000    1.424E+01    1.9101048E+06    1.2437205E-09    6.6604217E-10    1.9101048E+06    1.5300410E-09    1.9101048E+06
   -8.27   500.000    1.423E+01    1.9733419E+06    1.4042328E-09    7.7577389E-10    1.9733419E+06    1.5682579E-09    1.9733419E+06
   -8.26   500.000    1.422E+01    2.0291131E+06    1.5799256E-09    9.0078905E-10    2.0291131E+06    1.6054474E-09    2.0291131E+06
   -8.25   500.000    1.420E+01    2.0779198E+06    1.7659107E-09    1.0374590E-09    2.0779198E+06    1.6373670E-09    2.0779198E+06
   -8.24   500.000    1.419E+01    2.1209628E+06    1.9572909E-09    1.1816199E-09    2.1209628E+06    1.6614504E-09    2.1209628E+06
   -8.23   500.000    1.418E+01    2.1595372E+06    2.1495795E-09    1.3291009E-09    2.1595372E+06    1.6768565E-09    2.1595373E+06
   -8.22   500.000    1.416E+01    2.1945964E+06    2.3393193E-09    1.4765056E-09    2.1945964E+06    1.6846334E-09    2.1945964E+06
   -8.21   500.000    1.415E+01    2.2266403E+06    2.5248037E-09    1.6220556E-09    2.2266403E+06    1.6879338E-09    2.2266403E+06
   -8.20   500.000    1.413E+01    2.2559094E+06    2.7066348E-09    1.7661812E-09    2.2559094E+06    1.6921105E-09    2.2559094E+06
   -8.19   500.000    1.412E+01    2.2827213E+06    2.8877981E-09    1.9115523E-09    2.2827213E+06    1.7045242E-09    2.2827214E+06
   -8.18   500.000    1.410E+01    2.3077330E+06    3.0730558E-09    2.0624157E-09    2.3077330E+06    1.7340104E-09    2.3077330E+06
   -8.17   500.000    1.408E+01    2.3319676E+06    3.2676950E-09    2.2233582E-09    2.3319676E+06    1.7900791E-09    2.3319677E+06
   -8.16   500.000    1.407E+01    2.3565722E+06    3.4758875E-09    2.3978135E-09    2.3565722E+06    1.8819731E-09    2.3565723E+06
   -8.15   500.000    1.405E+01    2.3823976E+06    3.6990177E-09    2.5866799E-09    2.3823976E+06    2.0176656E-09    2.3823977E+06
   -8.14   500.000    1.404E+01    2.4095775E+06    3.9343267E-09    2.7873367E-09    2.4095775E+06    2.2028446E-09    2.4095777E+06
   -8.13   500.000    1.402E+01    2.4372886E+06    4.1741703E-09    2.9932272E-09    2.4372886E+06    2.4399836E-09    2.4372888E+06
   -8.12   500.000    1.400E+01    2.4638098E+06    4.4061356E-09    3.1940998E-09    2.4638098E+06    2.7277423E-09    2.4638101E+06
   -8.11   500.000    1.398E+01    2.4868921E+06    4.6141944E-09    3.3769588E-09    2.4868921E+06    3.0610723E-09    2.4868925E+06
   -8.10   500.000    1.397E+01    2.5043366E+06    4.7808994E-09    3.5277183E-09    2.5043366E+06    3.4323495E-09    2.5043370E+06
   -8.09   500.000    1.395E+01    2.5145966E+06    4.8903340E-09    3.6333846E-09    2.5145966E+06    3.8335634E-09    2.5145971E+06
   -8.08   500.000    1.393E+01    2.5172040E+06    4.9311731E-09    3.6843635E-09    2.5172040E+06    4.2591055E-09    2.5172048E+06
   -8.07   500.000    1.392E+01    2.5128784E+06    4.8990039E-09    3.6762970E-09    2.5128784E+06    4.7082619E-09    2.5128793E+06
   -8.06   500.000    1.390E+01    2.5032989E+06    4.7971787E-09    3.6108709E-09    2.5032989E+06    5.1863883E-09    2.5033001E+06
   -8.05   500.000    1.388E+01    2.4906528E+06    4.6359503E-09    3.4953413E-09    2.4906528E+06    5.7040942E-09    2.4906542E+06
   -8.04   500.000    1.386E+01    2.4771449E+06    4.4302655E-09    3.3409896E-09    2.4771449E+06    6.2744880E-09    2.4771467E+06
   -8.03   500.000    1.384E+01    2.4646366E+06    4.1970274E-09    3.1610726E-09    2.4646366E+06    6.9093157E-09    2.4646389E+06
   -8.02   500.000    1.383E+01    2.4544838E+06    3.9526913E-09    2.9689273E-09    2.4544838E+06    7.6153110E-09    2.4544867E+06
   -8.01   500.000    1.381E+01    2.4475440E+06    3.7117594E-09    2.7767017E-09    2.4475440E+06    8.3920666E-09    2.4475476E+06
   -8.00   500.000    1.379E+01    2.4442697E+06    3.4863033E-09    2.5948684E-09    2.4442697E+06    9.2322598E-09    2.4442743E+06
   -7.99   500.000    1.377E+01    2.4448181E+06    3.2862719E-09    2.4323735E-09    2.4448181E+06    1.0124296E-08    2.4448239E+06
   -7.98   500.000    1.375E+01    2.4491522E+06    3.1201431E-09    2.2970947E-09    2.4491522E+06    1.1056609E-08    2.4491595E+06
   -7.97   500.000    1.373E+01    2.4571379E+06    2.9954545E-09    2.1962324E-09    2.4571379E+06    1.2022218E-08    2.4571471E+06
   -7.96   500.000    1.371E+01    2.4686374E+06    2.9188782E-09    2.1363468E-09    2.4686374E+06    1.3021939E-08    2.4686490E+06
   -7.95   500.000    1.369E+01    2.4835766E+06    2.8957182E-09    2.1229204E-09    2.4835766E+06    1.4064999E-08    2.4835912E+06
   -7.94   500.000    1.367E+01    2.5019524E+06    2.9289423E-09    2.1595154E-09    2.5019524E+06    1.5166588E-08    2.5019709E+06
   -7.93   500.000    1.365E+01    2.5237657E+06    3.0180433E-09    2.2467517E-09    2.5237657E+06    1.6342978E-08    2.5237889E+06
   -7.92   500.000    1.363E+01    2.5489032E+06    3.1581116E-09    2.3814100E-09    2.5489032E+06    1.7605585E-08    2.5489325E+06
   -7.91   500.000    1.361E+01    2.5770284E+06    3.3394856E-09    2.5559764E-09    2.5770284E+06    1.8955730E-08    2.5770653E+06
   -7.90   500.000    1.359E+01    2.6075371E+06    3.5482380E-09    2.7588741E-09    2.6075371E+06    2.0381465E-08    2.6075837E+06
   -7.89   500.000    1.357E+01    2.6395989E+06    3.7675492E-09    2.9754883E-09    2.6395989E+06    2.1857060E-08    2.6396577E+06
   -7.88   500.000    1.354E+01    2.6722521E+06    3.9797792E-09    3.1898837E-09    2.6722521E+06    2.3344693E-08    2.6723262E+06
   -7.87   500.000    1.352E+01    2.7044863E+06    4.1688283E-09    3.3869087E-09    2.7044863E+06    2.4797243E-08    2.7045797E+06
   -7.86   500.000    1.350E+01    2.7352578E+06    4.3222795E-09    3.5542454E-09    2.7352578E+06    2.6161081E-08    2.7353755E+06
   -7.85   500.000    1.347E+01    2.7634291E+06    4.4328821E-09    3.6839748E-09    2.7634291E+06    2.7378519E-08    2.7635773E+06
   -7.84   500.000    1.345E+01    2.7876827E+06    4.4991316E-09    3.7733665E-09    2.7876827E+06    2.8390690E-08    2.7878694E+06
   -7.83   500.000    1.343E+01    2.8064893E+06    4.5249412E-09    3.8248131E-09    2.8064893E+06    2.9142134E-08    2.8067245E+06
   -7.82   500.000    1.340E+01    2.8181956E+06    4.5185739E-09    3.8449978E-09    2.8181956E+06    2.9587755E-08    2.8184916E+06
   -7.81   500.000    1.337E+01    2.8212451E+06    4.4910709E-09    3.8434816E-09    2.8212451E+06    2.9701162E-08    2.8216176E+06
   -7.80   500.000    1.335E+01    2.8144797E+06    4.4544235E-09    3.8309521E-09    2.8144797E+06    2.9481749E-08    2.8149481E+06
   -7.79   500.000    1.332E+01    2.7974235E+06    4.4197574E-09    3.8174482E-09    2.7974235E+06    2.8957486E-08    2.7980119E+06
   -7.78   500.000    1.329E+01    2.7704421E+06    4.3958487E-09    3.8109471E-09    2.7704421E+06    2.8181806E-08    2.7711807E+06
   -7.77   500.000    1.326E+01    2.7347098E+06    4.3882793E-09    3.8166666E-09    2.7347098E+06    2.7225424E-08    2.7356356E+06
   -7.76   500.000    1.323E+01    2.6919786E+06    4.3993667E-09    3.8372036E-09    2.6919786E+06    2.6165857E-08    2.6931374E+06
   -7.75   500.000    1.320E+01    2.6442143E+06    4.4287154E-09    3.8732794E-09    2.6442143E+06    2.5077758E-08    2.6456620E+06
   -7.74   500.000    1.317E+01    2.5932087E+06    4.4739973E-09    3.9245953E-09    2.5932087E+06    2.4026029E-08    2.5950129E+06
   -7.73   500.000    1.313E+01    2.5402922E+06    4.5315637E-09    3.9903164E-09    2.5402922E+06    2.3062056E-08    2.5425344E+06
   -7.72   500.000    1.310E+01    2.4862457E+06    4.5967424E-09    4.0690181E-09    2.4862457E+06    2.2222422E-08    2.4890221E+06
   -7.71   500.000    1.306E+01    2.4314491E+06    4.6640080E-09    4.1583316E-09    2.4314491E+06    2.1529239E-08    2.4348722E+06
   -7.70   500.000    1.303E+01    2.3762267E+06    4.7273758E-09    4.2547540E-09    2.3762267E+06    2.0991589E-08    2.3804248E+06
   -7.69   500.000    1.299E+01    2.3212695E+06    4.7812378E-09    4.3539888E-09    2.3212695E+06    2.0607819E-08    2.3263860E+06
   -7.68   500.000    1.295E+01    2.2679808E+06    4.8215140E-09    4.4518256E-09    2.2679808E+06    2.0368357E-08    2.2741703E+06
   -7.67   500.000    1.291E+01    2.2186036E+06    4.8466789E-09    4.5451972E-09    2.2186036E+06    2.0258464E-08    2.2260264E+06
   -7.66   500.000    1.286E+01    2.1760653E+06    4.8581404E-09    4.6328715E-09    2.1760653E+06    2.0260146E-08    2.1848787E+06
   -7.65   500.000    1.282E+01    2.1435710E+06    4.8596458E-09    4.7153501E-09    2.1435710E+06    2.0352584E-08    2.1539178E+06
   -7.64   500.000    1.278E+01    2.1240558E+06    4.8557625E-09    4.7938768E-09    2.1240558E+06    2.0511015E-08    2.1360514E+06
   -7.63   500.000    1.273E+01    2.1196434E+06    4.8498687E-09    4.8688612E-09    2.1196434E+06    2.0704708E-08    2.1333620E+06
   -7.62   500.000    1.268E+01    2.1312442E+06    4.8423370E-09    4.9383294E-09    2.1312442E+06    2.0895415E-08    2.1467070E+06
   -7.61   500.000    1.263E+01    2.1583813E+06    4.8296157E-09    4.9970951E-09    2.1583813E+06    2.1037858E-08    2.1755488E+06
   -7.60   500.000    1.258E+01    2.1992720E+06    4.8046620E-09    5.0371386E-09    2.1992720E+06    2.1083353E-08    2.2180420E+06
   -7.59   500.000    1.253E+01    2.2511297E+06    4.7587300E-09    5.0492486E-09    2.2511297E+06    2.0986508E-08    2.2713416E+06
   -7.58   500.000    1.248E+01    2.3105963E+06    4.6840123E-09    5.0254779E-09    2.3105963E+06    2.0713541E-08    2.3320417E+06
   -7.57   500.000    1.243E+01    2.3741921E+06    4.5763015E-09    4.9616235E-09    2.3741921E+06    2.0249823E-08    2.3966288E+06
   -7.56   500.000    1.238E+01    2.4386792E+06    4.4368409E-09    4.8589418E-09    2.4386792E+06    1.9604249E-08    2.4618468E+06
   -7.55   500.000    1.232E+01    2.5012842E+06    4.2728732E-09    4.7246349E-09    2.5012842E+06    1.8809092E-08    2.5249183E+06
   -7.54   500.000    1.227E+01    2.5597803E+06    4.0968911E-09    4.5711238E-09    2.5597803E+06    1.7915538E-08    2.5836245E+06
   -7.53   500.000    1.222E+01    2.6124701E+06    3.9249833E-09    4.4144820E-09    2.6124701E+06    1.6986415E-08    2.6362846E+06
   -7.52   500.000    1.216E+01    2.6581153E+06    3.7748025E-09    4.2725136E-09    2.6581153E+06    1.6088064E-08    2.6816822E+06
   -7.51   500.000    1.211E+01    2.6958476E+06    3.6635695E-09    4.1628464E-09    2.6958476E+06    1.5282970E-08    2.7189736E+06
   -7.50   500.000    1.205E+01    2.7250811E+06    3.6063448E-09    4.1012395E-09    2.7250811E+06    1.4623996E-08    2.7475979E+06
   -7.49   500.000    1.200E+01    2.7454471E+06    3.6146616E-09    4.1001911E-09    2.7454471E+06    1.4150426E-08    2.7672114E+06
   -7.48   500.000    1.194E+01    2.7567676E+06    3.6955803E-09    4.1679082E-09    2.7567676E+06    1.3885686E-08    2.7776600E+06
   -7.47   500.000    1.188E+01    2.7590647E+06    3.8512267E-09    4.3077036E-09    2.7590647E+06    1.3836573E-08    2.7789880E+06
   -7.46   500.000    1.183E+01    2.7525727E+06    4.0788364E-09    4.5178583E-09    2.7525727E+06    1.3993820E-08    2.7714495E+06
   -7.45   500.000    1.177E+01    2.7377136E+06    4.3712226E-09    4.7919015E-09    2.7377136E+06    1.4333791E-08    2.7554817E+06
   -7.44   500.000    1.172E+01    2.7150162E+06    4.7174434E-09    5.1191505E-09    2.7150162E+06    1.4821030E-08    2.7316248E+06
   -7.43   500.000    1.166E+01    2.6850123E+06    5.1033835E-09    5.4852890E-09    2.6850123E+06    1.5411268E-08    2.7004190E+06
   -7.42   500.000    1.160E+01    2.6481687E+06    5.5120479E-09    5.8728084E-09    2.6481687E+06    1.6054553E-08    2.6623394E+06
   -7.41   500.000    1.155E+01    2.6049041E+06    5.9236021E-09    6.2613088E-09    2.6049041E+06    1.6698288E-08    2.6178148E+06
   -7.40   500.000    1.149E+01    2.5556849E+06    6.3154763E-09    6.6278886E-09    2.5556849E+06    1.7290232E-08    2.5673267E+06
   -7.39   500.000    1.143E+01    2.5011475E+06    6.6630394E-09    6.9480245E-09    2.5011475E+06    1.7781729E-08    2.5115297E+06
   -7.38   500.000    1.138E+01    2.4421741E+06    6.9412971E-09    7.1973262E-09    2.4421741E+06    1.8131466E-08    2.4513273E+06
   -7.37   500.000    1.132E+01    2.3798813E+06    7.1277415E-09    7.3542818E-09    2.3798813E+06    1.8309783E-08    2.3878580E+06
   -7.36   500.000    1.126E+01    2.3155233E+06    7.2059516E-09    7.4036332E-09    2.3155233E+06    1.8302928E-08    2.3223957E+06
   -7.35   500.000    1.121E+01    2.2503458E+06    7.1690306E-09    7.3395476E-09    2.2503458E+06    1.8116059E-08    2.2562022E+06
   -7.34   500.000    1.115E+01    2.1854329E+06    7.0217505E-09    7.1675382E-09    2.1854329E+06    1.7773599E-08    2.1903724E+06
   -7.33   500.000    1.110E+01    2.1215791E+06    6.7805438E-09    6.9043432E-09    2.1215791E+06    1.7316113E-08    2.1257063E+06
   -7.32   500.000    1.105E+01    2.0592011E+06    6.4712001E-09    6.5756448E-09    2.0592011E+06    1.6793998E-08    2.0626206E+06
   -7.31   500.000    1.099E+01    1.9982991E+06    6.1249378E-09    6.2122843E-09    1.9982991E+06    1.6259469E-08    2.0011113E+06
   -7.30   500.000    1.094E+01    1.9384768E+06    5.7740465E-09    5.8461127E-09    1.9384768E+06    1.5758892E-08    1.9407747E+06
   -7.29   500.000    1.089E+01    1.8790235E+06    5.4482738E-09    5.5065809E-09    1.8790235E+06    1.5327260E-08    1.8808910E+06
   -7.28   500.000    1.085E+01    1.8190551E+06    5.1726598E-09    5.2187079E-09    1.8190551E+06    1.4985750E-08    1.8205659E+06
   -7.27   500.000    1.080E+01    1.7576896E+06    4.9668677E-09    5.0024402E-09    1.7576896E+06    1.4742279E-08    1.7589071E+06
   -7.26   500.000    1.075E+01    1.6942209E+06    4.8455356E-09    4.8729189E-09    1.6942209E+06    1.4594295E-08    1.6951989E+06
   -7.25   500.000    1.071E+01    1.6282539E+06    4.8189224E-09    4.8409618E-09    1.6282539E+06    1.4532749E-08    1.6290376E+06
   -7.24   500.000    1.067E+01    1.5597739E+06    4.8931847E-09    4.9131445E-09    1.5597739E+06    1.4546243E-08    1.5604006E+06
   -7.23   500.000    1.063E+01    1.4891412E+06    5.0699107E-09    5.0911620E-09    1.4891412E+06    1.4624462E-08    1.4896415E+06
   -7.22   500.000    1.059E+01    1.4170193E+06    5.3449515E-09    5.3705572E-09    1.4170193E+06    1.4760156E-08    1.4174181E+06
   -7.21   500.000    1.055E+01    1.3442544E+06    5.7069901E-09    5.7392782E-09    1.3442544E+06    1.4949133E-08    1.3445720E+06
   -7.20   500.000    1.052E+01    1.2717320E+06    6.1365179E-09    6.1767379E-09    1.2717320E+06    1.5188091E-08    1.2719847E+06
   -7.19   500.000    1.048E+01    1.2002407E+06    6.6058579E-09    6.6539978E-09    1.2002407E+06    1.5470700E-08    1.2004416E+06
   -7.18   500.000    1.045E+01    1.1303707E+06    7.0805908E-09    7.1354018E-09    1.1303707E+06    1.5782978E-08    1.1305305E+06
   -7.17   500.000    1.042E+01    1.0624675E+06    7.5223433E-09    7.5815750E-09    1.0624675E+06    1.6099464E-08    1.0625945E+06
   -7.16   500.000    1.039E+01    9.9664404E+05    7.8925503E-09    7.9533511E-09    9.9664404E+05    1.6381843E-08    9.9674494E+05
   -7.15   500.000    1.036E+01    9.3284308E+05    8.1566171E-09    8.2160153E-09    9.3284308E+05    1.6581264E-08    9.3292329E+05
   -7.14   500.000    1.033E+01    8.7092796E+05    8.2878945E-09    8.3432554E-09    8.7092796E+05    1.6644748E-08    8.7099177E+05
   -7.13   500.000    1.031E+01    8.1077956E+05    8.2709317E-09    8.3203011E-09    8.1077956E+05    1.6524755E-08    8.1083038E+05
   -7.12   500.000    1.028E+01    7.5237761E+05    8.1035066E-09    8.1457914E-09    7.5237761E+05    1.6189609E-08    7.5241817E+05
   -7.11   500.000    1.026E+01    6.9585001E+05    7.7969596E-09    7.8319439E-09    6.9585001E+05    1.5631669E-08    6.9588250E+05
   -7.10   500.000    1.024E+01    6.4148126E+05    7.3745279E-09    7.4027655E-09    6.4148126E+05    1.4870502E-08    6.4150742E+05
   -7.09   500.000    1.021E+01    5.8968129E+05    6.8678067E-09    6.8904477E-09    5.8968129E+05    1.3949942E-08    5.8970253E+05
   -7.08   500.000    1.019E+01    5.4092625E+05    6.3120182E-09    6.3306263E-09    5.4092625E+05    1.2930116E-08    5.4094372E+05
   -7.07   500.000    1.017E+01    4.9568968E+05    5.7411686E-09    5.7575687E-09    4.9568968E+05    1.1877121E-08    4.9570430E+05
   -7.06   500.000    1.015E+01    4.5438397E+05    5.1841634E-09    5.2003387E-09    4.5438397E+05    1.0853408E-08    4.5439654E+05
   -7.05   500.000    1.013E+01    4.1732712E+05    4.6625626E-09    4.6806027E-09    4.1732712E+05    9.9110873E-09    4.1733831E+05
   -7.04   500.000    1.011E+01    3.8474027E+05    4.1901043E-09    4.2121936E-09    3.8474027E+05    9.0889729E-09    3.8475067E+05
   -7.03   500.000    1.009E+01    3.5677101E+05    3.7736657E-09    3.8020974E-09    3.5677101E+05    8.4130079E-09    3.5678116E+05
   -7.02   500.000    1.007E+01    3.3352982E+05    3.4150940E-09    3.4522896E-09    3.3352982E+05    7.8989956E-09    3.3354024E+05
   -7.01   500.000    1.004E+01    3.1512450E+05    3.1133082E-09    3.1618296E-09    3.1512450E+05    7.5564067E-09    3.1513571E+05
   -7.00   500.000    1.002E+01    3.0167961E+05    2.8661866E-09    2.9287265E-09    3.0167961E+05    7.3921947E-09    3.0169212E+05
   -6.99   500.000    9.994E+00    2.9333321E+05    2.6719253E-09    2.7512693E-09    2.9333321E+05    7.4138814E-09    2.9334759E+05
   -6.98   500.000    9.967E+00    2.9020952E+05    2.5297453E-09    2.6287022E-09    2.9020952E+05    7.6315463E-09    2.9022638E+05
   -6.97   500.000    9.938E+00    2.9237228E+05    2.4400083E-09    2.5613099E-09    2.9237228E+05    8.0586981E-09    2.9239226E+05
   -6.96   500.000    9.905E+00    2.9976919E+05    2.4039377E-09    2.5501153E-09    2.9976919E+05    8.7122621E-09    2.9979297E+05
   -6.95   500.000    9.870E+00    3.1218094E+05    2.4231969E-09    2.5964452E-09    3.1218094E+05    9.6120203E-09    3.1220922E+05
   -6.94   500.000    9.831E+00    3.2918837E+05    2.4995276E-09    2.7015734E-09    3.2918837E+05    1.0779761E-08    3.2922185E+05
   -6.93   500.000    9.788E+00    3.5016723E+05    2.6345418E-09    2.8665319E-09    3.5016723E+05    1.2238170E-08    3.5020657E+05
   -6.92   500.000    9.740E+00    3.7431351E+05    2.8296226E-09    3.0920423E-09    3.7431351E+05    1.4009217E-08    3.7435927E+05
   -6.91   500.000    9.687E+00    4.0069508E+05    3.0857960E-09    3.3784238E-09    4.0069508E+05    1.6111592E-08    4.0074765E+05
   -6.90   500.000    9.629E+00    4.2832004E+05    3.4034055E-09    3.7252997E-09    4.2832004E+05    1.8556691E-08    4.2837962E+05
   -6.89   500.000    9.566E+00    4.5621018E+05    3.7814588E-09    4.1309744E-09    4.5621018E+05    2.1342881E-08    4.5627671E+05
   -6.88   500.000    9.496E+00    4.8346932E+05    4.2166250E-09    4.5914573E-09    4.8346932E+05    2.4448198E-08    4.8354253E+05
   -6.87   500.000    9.420E+00    5.0933985E+05    4.7020018E-09    5.0992568E-09    5.0933985E+05    2.7822400E-08    5.0941925E+05
   -6.86   500.000    9.338E+00    5.3324431E+05    5.2259420E-09    5.6422295E-09    5.3324431E+05    3.1380130E-08    5.3332929E+05
   -6.85   500.000    9.249E+00    5.5481193E+05    5.7713547E-09    6.2028987E-09    5.5481193E+05    3.4997818E-08    5.5490181E+05
   -6.84   500.000    9.153E+00    5.7389188E+05    6.3159332E-09    6.7586933E-09    5.7389188E+05    3.8517198E-08    5.7398606E+05
   -6.83   500.000    9.051E+00    5.9055570E+05    6.8336329E-09    7.2834314E-09    5.9055570E+05    4.1757537E-08    5.9065368E+05
   -6.82   500.000    8.943E+00    6.0509052E+05    7.2974104E-09    7.7500664E-09    6.0509052E+05    4.4536515E-08    6.0519196E+05
   -6.81   500.000    8.829E+00    6.1798389E+05    7.6828311E-09    8.1343005E-09    6.1798389E+05    4.6696588E-08    6.1808866E+05
   -6.80   500.000    8.710E+00    6.2989968E+05    7.9718074E-09    8.4183251E-09    6.2989968E+05    4.8130940E-08    6.3000779E+05
   -6.79   500.000    8.586E+00    6.4164325E+05    8.1556305E-09    8.5938473E-09    6.4164325E+05    4.8802173E-08    6.4175481E+05
   -6.78   500.000    8.459E+00    6.5411270E+05    8.2366485E-09    8.6637542E-09    6.5411270E+05    4.8748507E-08    6.5422777E+05
   -6.77   500.000    8.330E+00    6.6823259E+05    8.2283149E-09    8.6421348E-09    6.6823259E+05    4.8075846E-08    6.6835105E+05
   -6.76   500.000    8.198E+00    6.8486841E+05    8.1536834E-09    8.5527351E-09    6.8486841E+05    4.6938039E-08    6.8498982E+05
   -6.75   500.000    8.065E+00    7.0472645E+05    8.0426282E-09    8.4261226E-09    7.0472645E+05    4.5510458E-08    7.0484992E+05
   -6.74   500.000    7.932E+00    7.2825288E+05    7.9281243E-09    8.2959031E-09    7.2825288E+05    4.3962836E-08    7.2837701E+05
   -6.73   500.000    7.797E+00    7.5555398E+05    7.8419413E-09    8.1943564E-09    7.5555398E+05    4.2436430E-08    7.5567693E+05
   -6.72   500.000    7.662E+00    7.8636116E+05    7.8101940E-09    8.1479475E-09    7.8636116E+05    4.1028753E-08    7.8648082E+05
   -6.71   500.000    7.527E+00    8.2005631E+05    7.8493910E-09    8.1733616E-09    8.2005631E+05    3.9787233E-08    8.2017053E+05
   -6.70   500.000    7.391E+00    8.5575737E+05    7.9638422E-09    8.2749187E-09    8.5575737E+05    3.8711726E-08    8.5586418E+05
   -6.69   500.000    7.255E+00    8.9244588E+05    8.1453374E-09    8.4442723E-09    8.9244588E+05    3.7764708E-08    8.9254373E+05
   -6.68   500.000    7.118E+00    9.2910553E+05    8.3756823E-09    8.6629690E-09    9.2910553E+05    3.6887158E-08    9.2919343E+05
   -6.67   500.000    6.982E+00    9.6483736E+05    8.6318978E-09    8.9076814E-09    9.6483736E+05    3.6017232E-08    9.6491487E+05
   -6.66   500.000    6.847E+00    9.9892514E+05    8.8928796E-09    9.1569162E-09    9.9892514E+05    3.5108102E-08    9.9899234E+05
   -6.65   500.000    6.712E+00    1.0308423E+06    9.1455539E-09    9.3972364E-09    1.0308423E+06    3.4141064E-08    1.0308998E+06
   -6.64   500.000    6.580E+00    1.0602120E+06    9.3885463E-09    9.6270065E-09    1.0602120E+06    3.3130837E-08    1.0602604E+06
   -6.63   500.000    6.450E+00    1.0867472E+06    9.6322372E-09    9.8565157E-09    1.0867472E+06    3.2121976E-08    1.0867876E+06
   -6.62   500.000    6.323E+00    1.1102052E+06    9.8953911E-09    1.0104652E-08    1.1102052E+06    3.1177820E-08    1.1102385E+06
   -6.61   500.000    6.199E+00    1.1303815E+06    1.0199637E-08    1.0393391E-08    1.1303815E+06    3.0365347E-08    1.1304088E+06
   -6.60   500.000    6.080E+00    1.1471539E+06    1.0563429E-08    1.0741746E-08    1.1471539E+06    2.9739855E-08    1.1471761E+06
   -6.59   500.000    5.964E+00    1.1605612E+06    1.0996769E-08    1.1160443E-08    1.1605612E+06    2.9332602E-08    1.1605792E+06
   -6.58   500.000    5.852E+00    1.1708844E+06    1.1497316E-08    1.1647976E-08    1.1708844E+06    2.9143018E-08    1.1708990E+06
   -6.57   500.000    5.745E+00    1.1786905E+06    1.2048057E-08    1.2188216E-08    1.1786905E+06    2.9135875E-08    1.1787022E+06
   -6.56   500.000    5.641E+00    1.1848106E+06    1.2616708E-08    1.2749722E-08    1.1848106E+06    2.9243186E-08    1.1848200E+06
   -6.55   500.000    5.541E+00    1.1902534E+06    1.3157226E-08    1.3287167E-08    1.1902534E+06    2.9370679E-08    1.1902609E+06
   -6.54   500.000    5.445E+00    1.1960804E+06    1.3614004E-08    1.3745445E-08    1.1960804E+06    2.9408787E-08    1.1960864E+06
   -6.53   500.000    5.353E+00    1.2032821E+06    1.3928990E-08    1.4066726E-08    1.2032821E+06    2.9247695E-08    1.2032869E+06
   -6.52   500.000    5.265E+00    1.2126825E+06    1.4051048E-08    1.4199787E-08    1.2126825E+06    2.8794720E-08    1.2126863E+06
   -6.51   500.000    5.181E+00    1.2248744E+06    1.3945659E-08    1.4109710E-08    1.2248744E+06    2.7990664E-08    1.2248774E+06
   -6.50   500.000    5.100E+00    1.2401733E+06    1.3602198E-08    1.3785205E-08    1.2401733E+06    2.6820810E-08    1.2401758E+06
   -6.49   500.000    5.025E+00    1.2585749E+06    1.3036329E-08    1.3241050E-08    1.2585749E+06    2.5316960E-08    1.2585768E+06
   -6.48   500.000    4.953E+00    1.2797202E+06    1.2286536E-08    1.2514703E-08    1.2797202E+06    2.3549581E-08    1.2797217E+06
   -6.47   500.000    4.886E+00    1.3028972E+06    1.1405935E-08    1.1658175E-08    1.3028972E+06    2.1612510E-08    1.3028984E+06
   -6.46   500.000    4.823E+00    1.3271112E+06    1.0452072E-08    1.0727910E-08    1.3271112E+06    1.9605023E-08    1.3271121E+06
   -6.45   500.000    4.765E+00    1.3512463E+06    9.4777426E-09    9.7756617E-09    1.3512463E+06    1.7616322E-08    1.3512470E+06
   -6.44   500.000    4.711E+00    1.3743052E+06    8.5249201E-09    8.8424966E-09    1.3743052E+06    1.5715720E-08    1.3743058E+06
   -6.43   500.000    4.661E+00    1.3956701E+06    7.6224386E-09    7.9565270E-09    1.3956701E+06    1.3949323E-08    1.3956706E+06
   -6.42   500.000    4.614E+00    1.4153011E+06    6.7867626E-09    7.1337242E-09    1.4153011E+06    1.2341902E-08    1.4153015E+06
   -6.41   500.000    4.572E+00    1.4337909E+06    6.0245323E-09    6.3804735E-09    1.4337909E+06    1.0901667E-08    1.4337912E+06
   -6.40   500.000    4.532E+00    1.4522409E+06    5.3355671E-09    5.6965506E-09    1.4522409E+06    9.6257107E-09    1.4522412E+06
   -6.39   500.000    4.496E+00    1.4719874E+06    4.7154600E-09    5.0776634E-09    1.4719874E+06    8.5046516E-09    1.4719876E+06
   -6.38   500.000    4.462E+00    1.4942654E+06    4.1574714E-09    4.5172885E-09    1.4942654E+06    7.5258745E-09    1.4942655E+06
   -6.37   500.000    4.430E+00    1.5199178E+06    3.6538450E-09    4.0079614E-09    1.5199178E+06    6.6754745E-09    1.5199179E+06
   -6.36   500.000    4.401E+00    1.5492320E+06    3.1968181E-09    3.5423016E-09    1.5492320E+06    5.9393153E-09    1.5492321E+06
   -6.35   500.000    4.374E+00    1.5819329E+06    2.7794984E-09    3.1139367E-09    1.5819329E+06    5.3036135E-09    1.5819330E+06
   -6.34   500.000    4.348E+00    1.6173013E+06    2.3966030E-09    2.7182860E-09    1.6173013E+06    4.7553076E-09    1.6173014E+06
   -6.33   500.000    4.323E+00    1.6543490E+06    2.0449286E-09    2.3530321E-09    1.6543490E+06    4.2823168E-09    1.6543491E+06
   -6.32   500.000    4.300E+00    1.6919774E+06    1.7234153E-09    2.0181292E-09    1.6919774E+06    3.8737239E-09    1.6919775E+06
   -6.31   500.000    4.277E+00    1.7290790E+06    1.4327685E-09    1.7153270E-09    1.7290790E+06    3.5199142E-09    1.7290791E+06
   -6.30   500.000    4.256E+00    1.7645850E+06    1.1747485E-09    1.4473595E-09    1.7645850E+06    3.2127148E-09    1.7645850E+06
   -6.29   500.000    4.235E+00    1.7974985E+06    9.5134481E-10    1.2170597E-09    1.7974985E+06    2.9455545E-09    1.7974985E+06
   -6.28   500.000    4.216E+00    1.8269600E+06    7.6407967E-10    1.0266573E-09    1.8269600E+06    2.7136114E-09    1.8269600E+06
   -6.27   500.000    4.196E+00    1.8523701E+06    6.1360798E-10    8.7741231E-10    1.8523701E+06    2.5138559E-09    1.8523701E+06
   -6.26   500.000    4.178E+00    1.8735577E+06    4.9964855E-10    7.6958158E-10    1.8735577E+06    2.3449052E-09    1.8735577E+06
   -6.25   500.000    4.160E+00    1.8909482E+06    4.2115893E-10    7.0259119E-10    1.8909482E+06    2.2066615E-09    1.8909482E+06
   -6.24   500.000    4.142E+00    1.9056677E+06    3.7660554E-10    6.7524617E-10    1.9056677E+06    2.0997949E-09    1.9056677E+06
   -6.23   500.000    4.125E+00    1.9195198E+06    3.6419519E-10    6.8584946E-10    1.9195198E+06    2.0251855E-09    1.9195198E+06
   -6.22   500.000    4.108E+00    1.9348010E+06    3.8199644E-10    7.3218394E-10    1.9348010E+06    1.9834324E-09    1.9348010E+06
   -6.21   500.000    4.092E+00    1.9539539E+06    4.2794816E-10    8.1138908E-10    1.9539539E+06    1.9744831E-09    1.9539539E+06
   -6.20   500.000    4.075E+00    1.9791167E+06    4.9980021E-10    9.1981069E-10    1.9791167E+06    1.9973795E-09    1.9791167E+06
   -6.19   500.000    4.058E+00    2.0116687E+06    5.9504879E-10    1.0529196E-09    2.0116687E+06    2.0501018E-09    2.0116687E+06
   -6.18   500.000    4.042E+00    2.0518998E+06    7.1092528E-10    1.2053918E-09    2.0518998E+06    2.1295112E-09    2.0518998E+06
   -6.17   500.000    4.025E+00    2.0989158E+06    8.4447997E-10    1.3714165E-09    2.0989158E+06    2.2314309E-09    2.0989158E+06
   -6.16   500.000    4.007E+00    2.1508227E+06    9.9277198E-10    1.5452400E-09    2.1508227E+06    2.3509094E-09    2.1508227E+06
   -6.15   500.000    3.990E+00    2.2051504E+06    1.1531274E-09    1.7218549E-09    2.2051504E+06    2.4826604E-09    2.2051504E+06
   -6.14   500.000    3.972E+00    2.2593928E+06    1.3233679E-09    1.8976334E-09    2.2593928E+06    2.6215836E-09    2.2593928E+06
   -6.13   500.000    3.953E+00    2.3115050E+06    1.5018683E-09    2.0706500E-09    2.3115050E+06    2.7631971E-09    2.3115050E+06
   -6.12   500.000    3.934E+00    2.3602156E+06    1.6873230E-09    2.2404893E-09    2.3602156E+06    2.9038115E-09    2.3602156E+06
   -6.11   500.000    3.914E+00    2.4050704E+06    1.8782050E-09    2.4075187E-09    2.4050704E+06    3.0403856E-09    2.4050704E+06
   -6.10   500.000    3.894E+00    2.4462187E+06    2.0720583E-09    2.5718376E-09    2.4462187E+06    3.1701832E-09    2.4462187E+06
   -6.09   500.000    3.873E+00    2.4840379E+06    2.2648969E-09    2.7322814E-09    2.4840379E+06    3.2904980E-09    2.4840379E+06
   -6.08   500.000    3.852E+00    2.5187490E+06    2.4509992E-09    2.8858649E-09    2.5187490E+06    3.3987249E-09    2.5187490E+06
   -6.07   500.000    3.831E+00    2.5501649E+06    2.6232628E-09    3.0278824E-09    2.5501649E+06    3.4928928E-09    2.5501649E+06
   -6.06   500.000    3.809E+00    2.5776405E+06    2.7740692E-09    3.1526219E-09    2.5776405E+06    3.5725097E-09    2.5776405E+06
   -6.05   500.000    3.786E+00    2.6001979E+06    2.8964105E-09    3.2544238E-09    2.6001979E+06    3.6393727E-09    2.6001979E+06
   -6.04   500.000    3.764E+00    2.6167344E+06    2.9849501E-09    3.3287267E-09    2.6167344E+06    3.6979906E-09    2.6167344E+06
   -6.03   500.000    3.742E+00    2.6262319E+06    3.0367650E-09    3.3728283E-09    2.6262319E+06    3.7554743E-09    2.6262319E+06
   -6.02   500.000    3.719E+00    2.6279470E+06    3.0516816E-09    3.3862652E-09    2.6279470E+06    3.8210155E-09    2.6279470E+06
   -6.01   500.000    3.697E+00    2.6216185E+06    3.0322679E-09    3.3708880E-09    2.6216185E+06    3.9052184E-09    2.6216185E+06
   -6.00   500.000    3.675E+00    2.6077262E+06    2.9835974E-09    3.3307549E-09    2.6077262E+06    4.0194906E-09    2.6077262E+06
   -5.99   500.000    3.653E+00    2.5877659E+06    2.9128522E-09    3.2719192E-09    2.5877659E+06    4.1755131E-09    2.5877659E+06
   -5.98   500.000    3.631E+00    2.5644244E+06    2.8287758E-09    3.2020960E-09    2.5644244E+06    4.3846676E-09    2.5644244E+06
   -5.97   500.000    3.610E+00    2.5415161E+06    2.7409850E-09    3.1301725E-09    2.5415161E+06    4.6572953E-09    2.5415161E+06
   -5.96   500.000    3.588E+00    2.5236026E+06    2.6592249E-09    3.0655823E-09    2.5236026E+06    5.0017741E-09    2.5236026E+06
   -5.95   500.000    3.567E+00    2.5153374E+06    2.5927288E-09    3.0176660E-09    2.5153374E+06    5.4235432E-09    2.5153374E+06
   -5.94   500.000    3.545E+00    2.5206841E+06    2.5498678E-09    2.9951859E-09    2.5206841E+06    5.9242756E-09    2.5206841E+06
   -5.93   500.000    3.524E+00    2.5422031E+06    2.5381932E-09    3.0061319E-09    2.5422031E+06    6.5014163E-09    2.5422031E+06
   -5.92   500.000    3.502E+00    2.5805661E+06    2.5648515E-09    3.0578489E-09    2.5805661E+06    7.1482792E-09    2.5805661E+06
   -5.91   500.000    3.480E+00    2.6343912E+06    2.6372130E-09    3.1573976E-09    2.6343912E+06    7.8548530E-09    2.6343912E+06
   -5.90   500.000    3.458E+00    2.7004103E+06    2.7634692E-09    3.3119723E-09    2.7004103E+06    8.6093660E-09    2.7004103E+06
   -5.89   500.000    3.435E+00    2.7739167E+06    2.9529112E-09    3.5291477E-09    2.7739167E+06    9.4004591E-09    2.7739167E+06
   -5.88   500.000    3.412E+00    2.8493977E+06    3.2156219E-09    3.8167165E-09    2.8493977E+06    1.0219518E-08    2.8493977E+06
   -5.87   500.000    3.389E+00    2.9212250E+06    3.5614019E-09    4.1819286E-09    2.9212250E+06    1.1062425E-08    2.9212250E+06
   -5.86   500.000    3.365E+00    2.9842795E+06    3.9979162E-09    4.6300576E-09    2.9842795E+06    1.1929908E-08    2.9842795E+06
   -5.85   500.000    3.341E+00    3.0344042E+06    4.5282817E-09    5.1624094E-09    3.0344042E+06    1.2825884E-08    3.0344042E+06
   -5.84   500.000    3.317E+00    3.0686355E+06    5.1485309E-09    5.7740951E-09    3.0686355E+06    1.3753786E-08    3.0686355E+06
   -5.83   500.000    3.293E+00    3.0852232E+06    5.8455000E-09    6.4520344E-09    3.0852232E+06    1.4711601E-08    3.0852232E+06
   -5.82   500.000    3.268E+00    3.0835173E+06    6.5956654E-09    7.1736932E-09    3.0835173E+06    1.5686972E-08    3.0835174E+06
   -5.81   500.000    3.244E+00    3.0638278E+06    7.3653284E-09    7.9070101E-09    3.0638278E+06    1.6654056E-08    3.0638278E+06
   -5.80   500.000    3.220E+00    3.0273503E+06    8.1124129E-09    8.6118752E-09    3.0273503E+06    1.7573651E-08    3.0273503E+06
   -5.79   500.000    3.196E+00    2.9761869E+06    8.7899904E-09    9.2433790E-09    2.9761869E+06    1.8397368E-08    2.9761869E+06
   -5.78   500.000    3.172E+00    2.9134114E+06    9.3514043E-09    9.7567655E-09    2.9134114E+06    1.9075526E-08    2.9134114E+06
   -5.77   500.000    3.149E+00    2.8430752E+06    9.7564308E-09    1.0113529E-08    2.8430752E+06    1.9567126E-08    2.8430752E+06
   -5.76   500.000    3.125E+00    2.7700429E+06    9.9773607E-09    1.0287494E-08    2.7700429E+06    1.9849273E-08    2.7700429E+06
   -5.75   500.000    3.102E+00    2.6995954E+06    1.0003490E-08    1.0269317E-08    2.6995954E+06    1.9923148E-08    2.6995954E+06
   -5.74   500.000    3.080E+00    2.6368219E+06    9.8426212E-09    1.0067959E-08    2.6368219E+06    1.9814434E-08    2.6368219E+06
   -5.73   500.000    3.057E+00    2.5859072E+06    9.5189410E-09    9.7085320E-09    2.5859072E+06    1.9567781E-08    2.5859073E+06
   -5.72   500.000    3.034E+00    2.5494802E+06    9.0678574E-09    9.2271045E-09    2.5494802E+06    1.9236949E-08    2.5494802E+06
   -5.71   500.000    3.011E+00    2.5281934E+06    8.5293967E-09    8.6641285E-09    2.5281934E+06    1.8873710E-08    2.5281935E+06
   -5.70   500.000    2.988E+00    2.5206574E+06    7.9421930E-09    8.0585263E-09    2.5206574E+06    1.8518924E-08    2.5206575E+06
   -5.69   500.000    2.964E+00    2.5237626E+06    7.3396749E-09    7.4440235E-09    2.5237626E+06    1.8198207E-08    2.5237627E+06
   -5.68   500.000    2.939E+00    2.5333268E+06    6.7490763E-09    6.8483054E-09    2.5333268E+06    1.7922868E-08    2.5333270E+06
   -5.67   500.000    2.914E+00    2.5449263E+06    6.1928022E-09    6.2944638E-09    2.5449263E+06    1.7694905E-08    2.5449264E+06
   -5.66   500.000    2.887E+00    2.5547249E+06    5.6908902E-09    5.8034342E-09    2.5547249E+06    1.7513616E-08    2.5547251E+06
   -5.65   500.000    2.859E+00    2.5601243E+06    5.2630854E-09    5.3959361E-09    2.5601243E+06    1.7381125E-08    2.5601245E+06
   -5.64   500.000    2.829E+00    2.5601061E+06    4.9293916E-09    5.0928146E-09    2.5601061E+06    1.7304918E-08    2.5601064E+06
   -5.63   500.000    2.798E+00    2.5552222E+06    4.7086873E-09    4.9134366E-09    2.5552222E+06    1.7296910E-08    2.5552226E+06
   -5.62   500.000    2.765E+00    2.5472725E+06    4.6158098E-09    4.8725962E-09    2.5472725E+06    1.7369906E-08    2.5472730E+06
   -5.61   500.000    2.729E+00    2.5387766E+06    4.6581243E-09    4.9769702E-09    2.5387766E+06    1.7533124E-08    2.5387772E+06
   -5.60   500.000    2.691E+00    2.5323663E+06    4.8328081E-09    5.2223449E-09    2.5323663E+06    1.7788470E-08    2.5323670E+06
   -5.59   500.000    2.651E+00    2.5302128E+06    5.1258297E-09    5.5925710E-09    2.5302128E+06    1.8128721E-08    2.5302138E+06
   -5.58   500.000    2.607E+00    2.5335743E+06    5.5129760E-09    6.0605957E-09    2.5335743E+06    1.8537912E-08    2.5335755E+06
   -5.57   500.000    2.560E+00    2.5425195E+06    5.9625563E-09    6.5912273E-09    2.5425195E+06    1.8993526E-08    2.5425211E+06
   -5.56   500.000    2.510E+00    2.5558718E+06    6.4389284E-09    7.1448321E-09    2.5558718E+06    1.9469567E-08    2.5558737E+06
   -5.55   500.000    2.456E+00    2.5713958E+06    6.9059744E-09    7.6811261E-09    2.5713958E+06    1.9939657E-08    2.5713983E+06
   -5.54   500.000    2.400E+00    2.5862172E+06    7.3300243E-09    8.1625465E-09    2.5862172E+06    2.0379624E-08    2.5862203E+06
   -5.53   500.000    2.340E+00    2.5973984E+06    7.6821872E-09    8.5570734E-09    2.5973984E+06    2.0769524E-08    2.5974023E+06
   -5.52   500.000    2.278E+00    2.6025266E+06    7.9402580E-09    8.8405383E-09    2.6025266E+06    2.1095196E-08    2.6025315E+06
   -5.51   500.000    2.213E+00    2.6001379E+06    8.0902265E-09    8.9983242E-09    2.6001379E+06    2.1349263E-08    2.6001440E+06
   -5.50   500.000    2.146E+00    2.5898461E+06    8.1271246E-09    9.0261493E-09    2.5898461E+06    2.1531136E-08    2.5898539E+06
   -5.49   500.000    2.078E+00    2.5721619E+06    8.0548276E-09    8.9296051E-09    2.5721619E+06    2.1645586E-08    2.5721717E+06
   -5.48   500.000    2.009E+00    2.5481144E+06    7.8846491E-09    8.7224101E-09    2.5481144E+06    2.1699879E-08    2.5481267E+06
   -5.47   500.000    1.940E+00    2.5188575E+06    7.6329858E-09    8.4237638E-09    2.5188575E+06    2.1700131E-08    2.5188731E+06
   -5.46   500.000    1.871E+00    2.4854119E+06    7.3186130E-09    8.0554652E-09    2.4854119E+06    2.1647992E-08    2.4854315E+06
   -5.45   500.000    1.802E+00    2.4485943E+06    6.9602966E-09    7.6394439E-09    2.4485943E+06    2.1538788E-08    2.4486190E+06
   -5.44   500.000    1.735E+00    2.4090850E+06    6.5751948E-09    7.1960979E-09    2.4090850E+06    2.1361767E-08    2.4091160E+06
   -5.43   500.000    1.669E+00    2.3675349E+06    6.1781981E-09    6.7435099E-09    2.3675349E+06    2.1102460E-08    2.3675740E+06
   -5.42   500.000    1.604E+00    2.3246289E+06    5.7820298E-09    6.2973339E-09    2.3246289E+06    2.0746569E-08    2.3246780E+06
   -5.41   500.000    1.541E+00    2.2810725E+06    5.3976970E-09    5.8709766E-09    2.2810725E+06    2.0284362E-08    2.2811343E+06
   -5.40   500.000    1.479E+00    2.2375187E+06    5.0348244E-09    5.4756894E-09    2.2375187E+06    1.9714446E-08    2.2375962E+06
   -5.39   500.000    1.419E+00    2.1944730E+06    4.7015688E-09    5.1203461E-09    2.1944730E+06    1.9045985E-08    2.1945702E+06
   -5.38   500.000    1.360E+00    2.1522197E+06    4.4041155E-09    4.8109526E-09    2.1522197E+06    1.8298842E-08    2.1523414E+06
   -5.37   500.000    1.302E+00    2.1107966E+06    4.1460372E-09    4.5501588E-09    2.1107966E+06    1.7501667E-08    2.1109488E+06
   -5.36   500.000    1.246E+00    2.0700308E+06    3.9278858E-09    4.3370919E-09    2.0700308E+06    1.6688434E-08    2.0702206E+06
   -5.35   500.000    1.191E+00    2.0296230E+06    3.7472655E-09    4.1676927E-09    2.0296230E+06    1.5894259E-08    2.0298591E+06
   -5.34   500.000    1.137E+00    1.9892477E+06    3.5994050E-09    4.0355094E-09    1.9892477E+06    1.5151289E-08    1.9895406E+06
   -5.33   500.000    1.085E+00    1.9486260E+06    3.4780422E-09    3.9327260E-09    1.9486260E+06    1.4485254E-08    1.9489878E+06
   -5.32   500.000    1.033E+00    1.9075410E+06    3.3763510E-09    3.8511491E-09    1.9075410E+06    1.3912844E-08    1.9079860E+06
   -5.31   500.000    9.826E-01    1.8657987E+06    3.2876866E-09    3.7829544E-09    1.8657987E+06    1.3439904E-08    1.8663433E+06
   -5.30   500.000    9.334E-01    1.8231632E+06    3.2060568E-09    3.7211346E-09    1.8231632E+06    1.3060388E-08    1.8238254E+06
   -5.29   500.000    8.857E-01    1.7793098E+06    3.1263634E-09    3.6597287E-09    1.7793098E+06    1.2756310E-08    1.7801097E+06
   -5.28   500.000    8.393E-01    1.7338293E+06    3.0445488E-09    3.5939833E-09    1.7338293E+06    1.2499133E-08    1.7347882E+06
   -5.27   500.000    7.946E-01    1.6862918E+06    2.9577790E-09    3.5205662E-09    1.6862918E+06    1.2253070E-08    1.6874322E+06
   -5.26   500.000    7.515E-01    1.6363591E+06    2.8647035E-09    3.4378527E-09    1.6363591E+06    1.1980365E-08    1.6377036E+06
   -5.25   500.000    7.102E-01    1.5839120E+06    2.7657033E-09    3.3461728E-09    1.5839120E+06    1.1647839E-08    1.5854833E+06
   -5.24   500.000    6.707E-01    1.5291519E+06    2.6629413E-09    3.2478231E-09    1.5291519E+06    1.1233238E-08    1.5309719E+06
   -5.23   500.000    6.330E-01    1.4726315E+06    2.5600328E-09    3.1466672E-09    1.4726315E+06    1.0729532E-08    1.4747211E+06
   -5.22   500.000    5.971E-01    1.4151852E+06    2.4612740E-09    3.0472734E-09    1.4151852E+06    1.0145737E-08    1.4175642E+06
   -5.21   500.000    5.630E-01    1.3577630E+06    2.3705544E-09    2.9537370E-09    1.3577630E+06    9.5040014E-09    1.3604493E+06
   -5.20   500.000    5.305E-01    1.3012111E+06    2.2902473E-09    2.8685038E-09    1.3012111E+06    8.8339567E-09    1.3042208E+06
   -5.19   500.000    4.998E-01    1.2460786E+06    2.2204282E-09    2.7915693E-09    1.2460786E+06    8.1662119E-09    1.2494254E+06
   -5.18   500.000    4.705E-01    1.1925196E+06    2.1586851E-09    2.7203310E-09    1.1925196E+06    7.5268352E-09    1.1962154E+06
   -5.17   500.000    4.427E-01    1.1403261E+06    2.1005972E-09    2.6501606E-09    1.1403261E+06    6.9339949E-09    1.1443811E+06
   -5.16   500.000    4.163E-01    1.0890636E+06    2.0407399E-09    2.5755197E-09    1.0890636E+06    6.3970086E-09    1.0934875E+06
   -5.15   500.000    3.911E-01    1.0382475E+06    1.9739251E-09    2.4912830E-09    1.0382475E+06    5.9173459E-09    1.0430506E+06
   -5.14   500.000    3.671E-01    9.8748929E+05    1.8963391E-09    2.3938980E-09    9.8748929E+05    5.4908098E-09    9.9268306E+05
   -5.13   500.000    3.443E-01    9.3657587E+05    1.8063062E-09    2.2821128E-09    9.3657587E+05    5.1101309E-09    9.4217191E+05
   -5.12   500.000    3.226E-01    8.8548170E+05    1.7045442E-09    2.1571612E-09    8.8548170E+05    4.7673792E-09    8.9148977E+05
   -5.11   500.000    3.019E-01    8.3434408E+05    1.5939282E-09    2.0224589E-09    8.3434408E+05    4.4557973E-09    8.4076921E+05
   -5.10   500.000    2.822E-01    7.8343275E+05    1.4788973E-09    1.8829672E-09    7.8343275E+05    4.1708486E-09    7.9027278E+05
   -5.09   500.000    2.635E-01    7.3312829E+05    1.3646988E-09    1.7444208E-09    7.3312829E+05    3.9104542E-09    7.4037304E+05
   -5.08   500.000    2.457E-01    6.8390245E+05    1.2566568E-09    1.6125907E-09    6.8390245E+05    3.6745439E-09    6.9153508E+05
   -5.07   500.000    2.287E-01    6.3628253E+05    1.1595805E-09    1.4926816E-09    6.3628253E+05    3.4641545E-09    6.4428242E+05
   -5.06   500.000    2.125E-01    5.9078813E+05    1.0773438E-09    1.3888867E-09    5.9078813E+05    3.2803366E-09    5.9913385E+05
   -5.05   500.000    1.971E-01    5.4784619E+05    1.0125959E-09    1.3040630E-09    5.4784619E+05    3.1231109E-09    5.5651669E+05
   -5.04   500.000    1.824E-01    5.0770646E+05    9.6655677E-10    1.2394930E-09    5.0770646E+05    2.9906653E-09    5.1667953E+05
   -5.03   500.000    1.684E-01    4.7038606E+05    9.3888488E-10    1.1947370E-09    4.7038606E+05    2.8789503E-09    4.7963460E+05
   -5.02   500.000    1.549E-01    4.3566463E+05    9.2765503E-10    1.1676209E-09    4.3566463E+05    2.7817763E-09    4.4515228E+05
   -5.01   500.000    1.419E-01    4.0313509E+05    9.2949600E-10    1.1544161E-09    4.0313509E+05    2.6914404E-09    4.1281349E+05
   -5.00   500.000    1.296E-01    3.7229663E+05    9.3990947E-10    1.1502239E-09    3.7229663E+05    2.5997838E-09    3.8210557E+05
   -4.99   500.000    1.177E-01    3.4266277E+05    9.5373411E-10    1.1495157E-09    3.4266277E+05    2.4994395E-09    3.5253318E+05
   -4.98   500.000    1.063E-01    3.1385486E+05    9.6567656E-10    1.1467312E-09    3.1385486E+05    2.3849477E-09    3.2371307E+05
   -4.97   500.000    9.556E-02    2.8565911E+05    9.7083062E-10    1.1368413E-09    2.8565911E+05    2.2534500E-09    2.9543029E+05
   -4.96   500.000    8.536E-02    2.5803964E+05    9.6513850E-10    1.1158200E-09    2.5803964E+05    2.1048273E-09    2.6764916E+05
   -4.95   500.000    7.576E-02    2.3111404E+05    9.4577653E-10    1.0810105E-09    2.3111404E+05    1.9413440E-09    2.4048680E+05
   -4.94   500.000    6.679E-02    2.0510597E+05    9.1144103E-10    1.0313687E-09    2.0510597E+05    1.7669937E-09    2.1416525E+05
   -4.93   500.000    5.848E-02    1.8029066E+05    8.6247862E-10    9.6754212E-10    1.8029066E+05    1.5867597E-09    1.8895812E+05
   -4.92   500.000    5.083E-02    1.5694512E+05    8.0079404E-10    8.9172959E-10    1.5694512E+05    1.4059330E-09    1.6514333E+05
   -4.91   500.000    4.386E-02    1.3530991E+05    7.2951083E-10    8.0730452E-10    1.3530991E+05    1.2295496E-09    1.4296694E+05
   -4.90   500.000    3.756E-02    1.1556420E+05    6.5244268E-10    7.1826378E-10    1.1556420E+05    1.0619642E-09    1.2261946E+05
   -4.89   500.000    3.192E-02    9.7813605E+04    5.7350325E-10    6.2862909E-10    9.7813605E+04    9.0656695E-10    1.0422310E+05
   -4.88   500.000    2.693E-02    8.2088481E+04    4.9619599E-10    5.4193971E-10    8.2088481E+04    7.6565042E-10    8.7828384E+04
   -4.87   500.000    2.255E-02    6.8350260E+04    4.2328038E-10    4.6092887E-10    6.8350260E+04    6.4041895E-10    7.3418168E+04
   -4.86   500.000    1.876E-02    5.6503105E+04    3.5663954E-10    3.8740570E-10    5.6503105E+04    5.3111441E-10    6.0916891E+04
   -4.85   500.000    1.550E-02    4.6408387E+04    2.9731514E-10    3.2230554E-10    4.6408387E+04    4.3721434E-10    5.0203176E+04
   -4.84   500.000    1.273E-02    3.7899784E+04    2.4564708E-10    2.6584402E-10    3.7899784E+04    3.5765648E-10    4.1123727E+04
   -4.83   500.000    1.039E-02    3.0797266E+04    2.0145580E-10    2.1771158E-10    3.0797266E+04    2.9105199E-10    3.3506855E+04
   -4.82   500.000    8.449E-03    2.4918821E+04    1.6422188E-10    1.7726210E-10    2.4918821E+04    2.3586408E-10    2.7174423E+04
   -4.81   500.000    6.838E-03    2.0089373E+04    1.3323744E-10    1.4367031E-10    2.0089373E+04    1.9054280E-10    2.1951439E+04
   -4.80   500.000    5.515E-03    1.6146837E+04    1.0772017E-10    1.1604918E-10    1.6146837E+04    1.5361670E-10    1.7673045E+04
   -4.79   500.000    4.433E-03    1.2945633E+04    8.6891306E-11    9.3529137E-11    1.2945633E+04    1.2374786E-10    1.4188989E+04
   -4.78   500.000    3.554E-03    1.0358150E+04    7.0023633E-11    7.5305875E-11    1.0358150E+04    9.9758945E-11    1.1365939E+04
   -4.77   500.000    2.843E-03    8.2747059E+03    5.6467140E-11    6.0665009E-11    8.2747059E+03    8.0640641E-11    9.0881245E+03
   -4.76   500.000    2.270E-03    6.6025256E+03    4.5659373E-11    4.8990970E-11    6.6025256E+03    6.5546807E-11    7.2567925E+03
   -4.75   500.000    1.810E-03    5.2641532E+03    3.7126153E-11    3.9766149E-11    5.2641532E+03    5.3782700E-11    5.7889228E+03
   -4.74   500.000    1.441E-03    4.1956093E+03    3.0476875E-11    3.2564643E-11    4.1956093E+03    4.4790298E-11    4.6155484E+03
   -4.73   500.000    1.145E-03    3.3445114E+03    2.5397256E-11    2.7043606E-11    3.3445114E+03    3.8133324E-11    3.6799394E+03
   -4.72   500.000    9.089E-04    2.6682919E+03    2.1641435E-11    2.2934108E-11    2.6682919E+03    3.3483628E-11    2.9358171E+03
   -4.71   500.000    7.201E-04    2.1325861E+03    1.9024583E-11    2.0032687E-11    2.1325861E+03    3.0609930E-11    2.3456994E+03
   -4.70   500.000    5.691E-04    1.7098236E+03    1.7416704E-11    1.8194267E-11    1.7098236E+03    2.9369484E-11    1.8794293E+03
   -4.69   500.000    4.482E-04    1.3780282E+03    1.6738036E-11    1.7326808E-11    1.3780282E+03    2.9703016E-11    1.5129052E+03
   -4.68   500.000    3.511E-04    1.1198157E+03    1.6956264E-11    1.7387905E-11    1.1198157E+03    3.1633164E-11    1.2270096E+03
   -4.67   500.000    2.728E-04    9.2157346E+02    1.8085708E-11    1.8383453E-11    9.2157346E+02    3.5266677E-11    1.0067248E+03
   -4.66   500.000    2.090E-04    7.7280016E+02    2.0188633E-11    2.0368527E-11    7.7280016E+02    4.0800676E-11    8.4041543E+02
   -4.65   500.000    1.564E-04    6.6558549E+02    2.3378869E-11    2.3450618E-11    6.6558549E+02    4.8533434E-11    7.1925952E+02
   -4.64   500.000    1.122E-04    5.9421224E+02    2.7827973E-11    2.7795462E-11    5.9421224E+02    5.8880250E-11    6.3680909E+02
   -4.63   500.000    7.411E-05    5.5486511E+02    3.3774279E-11    3.3635785E-11    5.5486511E+02    7.2395246E-11    5.8866430E+02
   -4.62   500.000    3.996E-05    5.4543427E+02    4.1535274E-11    4.1283379E-11    5.4543427E+02    8.9800100E-11    5.7224867E+02
   -4.61   500.000    7.972E-06    5.6540540E+02    5.1523849E-11    5.1145058E-11    5.6540540E+02    1.1202100E-10    5.8667585E+02
   -4.60   500.000   -2.357E-05    6.1583097E+02    6.4269113E-11    6.3743148E-11    6.1583097E+02    1.4023541E-10    6.3270206E+02
   -4.59   500.000   -5.635E-05    6.9938114E+02    8.0442563E-11    7.9741317E-11    6.9938114E+02    1.7593036E-10    7.1276176E+02
   -4.58   500.000   -9.213E-05    8.2047562E+02    1.0089051E-10    9.9976602E-11    8.2047562E+02    2.2097438E-10    8.3108726E+02
   -4.57   500.000   -1.328E-04    9.8550113E+02    1.2667369E-10    1.2549856E-10    9.8550113E+02    2.7770512E-10    9.9391640E+02
   -4.56   500.000   -1.805E-04    1.2031215E+03    1.5911492E-10    1.5761640E-10    1.2031215E+03    3.4903455E-10    1.2097948E+03
   -4.55   500.000   -2.377E-04    1.4846902E+03    1.9985532E-10    1.9795458E-10    1.4846902E+03    4.3857311E-10    1.4899819E+03
   -4.54   500.000   -3.074E-04    1.8447753E+03    2.5091920E-10    2.4851694E-10    1.8447753E+03    5.5077273E-10    1.8489713E+03
   -4.53   500.000   -3.931E-04    2.3018087E+03    3.1478614E-10    3.1175799E-10    2.3018087E+03    6.9108612E-10    2.3051359E+03
   -4.52   500.000   -4.990E-04    2.8788663E+03    3.9446722E-10    3.9065820E-10    2.8788663E+03    8.6613520E-10    2.8815045E+03
   -4.51   500.000   -6.305E-04    3.6045810E+03    4.9357869E-10    4.8879665E-10    3.6045810E+03    1.0838744E-09    3.6066728E+03
   -4.50   500.000   -7.938E-04    4.5141761E+03    6.1640128E-10    6.1040937E-10    4.5141761E+03    1.3537229E-09    4.5158348E+03
   -4.49   500.000   -9.963E-04    5.6505871E+03    7.6790602E-10    7.6041431E-10    5.6505871E+03    1.6866245E-09    5.6519023E+03
   -4.48   500.000   -1.247E-03    7.0656039E+03    9.5371674E-10    9.4437326E-10    7.0656039E+03    2.0949682E-09    7.0666468E+03
   -4.47   500.000   -1.557E-03    8.8209228E+03    1.1799662E-09    1.1683482E-09    8.8209228E+03    2.5922768E-09    8.8217497E+03
   -4.46   500.000   -1.938E-03    1.0988934E+04    1.4529883E-09    1.4385945E-09    1.0988934E+04    3.1925346E-09    1.0989589E+04
   -4.45   500.000   -2.405E-03    1.3653002E+04    1.7787745E-09    1.7610207E-09    1.3653002E+04    3.9089969E-09    1.3653522E+04
   -4.44   500.000   -2.973E-03    1.6906943E+04    2.1621222E-09    2.1403418E-09    1.6906943E+04    4.7523164E-09    1.6907356E+04
   -4.43   500.000   -3.660E-03    2.0853356E+04    2.6054193E-09    2.5788724E-09    2.0853356E+04    5.7278640E-09    2.0853683E+04
   -4.42   500.000   -4.486E-03    2.5600534E+04    3.1070727E-09    3.0749670E-09    2.5600534E+04    6.8322500E-09    2.5600793E+04
   -4.41   500.000   -5.470E-03    3.1257844E+04    3.6597094E-09    3.6212362E-09    3.1257844E+04    8.0493253E-09    3.1258050E+04
   -4.40   500.000   -6.633E-03    3.7929786E+04    4.2484681E-09    4.2028545E-09    3.7929786E+04    9.3463497E-09    3.7929949E+04
   -4.39   500.000   -7.995E-03    4.5709372E+04    4.8499212E-09    4.7964966E-09    4.5709372E+04    1.0671519E-08    4.5709502E+04
   -4.38   500.000   -9.576E-03    5.4671908E+04    5.4323424E-09    5.3706133E-09    5.4671908E+04    1.1954425E-08    5.4672011E+04
   -4.37   500.000   -1.139E-02    6.4870338E+04    5.9579970E-09    5.8877175E-09    6.4870338E+04    1.3110967E-08    6.4870421E+04
   -4.36   500.000   -1.346E-02    7.6333028E+04    6.3877394E-09    6.3089640E-09    7.6333028E+04    1.4053360E-08    7.6333094E+04
   -4.35   500.000   -1.579E-02    8.9063978E+04    6.6874213E-09    6.6005278E-09    8.9063978E+04    1.4704229E-08    8.9064032E+04
   -4.34   500.000   -1.839E-02    1.0304474E+05    6.8346866E-09    6.7403613E-09    1.0304474E+05    1.5011675E-08    1.0304478E+05
   -4.33   500.000   -2.128E-02    1.1823721E+05    6.8241269E-09    6.7233179E-09    1.1823721E+05    1.4960936E-08    1.1823725E+05
   -4.32   500.000   -2.444E-02    1.3458765E+05    6.6689871E-09    6.5628335E-09    1.3458765E+05    1.4578671E-08    1.3458768E+05
   -4.31   500.000   -2.788E-02    1.5203333E+05    6.3987016E-09    6.2884495E-09    1.5203333E+05    1.3928228E-08    1.5203336E+05
   -4.30   500.000   -3.161E-02    1.7051338E+05    6.0530379E-09    5.9399496E-09    1.7051338E+05    1.3097460E-08    1.7051341E+05
   -4.29   500.000   -3.561E-02    1.8998279E+05    5.6747591E-09    5.5600159E-09    1.8998279E+05    1.2183030E-08    1.8998281E+05
   -4.28   500.000   -3.989E-02    2.1042463E+05    5.3029590E-09    5.1875637E-09    2.1042463E+05    1.1275655E-08    2.1042465E+05
   -4.27   500.000   -4.445E-02    2.3185366E+05    4.9686063E-09    4.8532958E-09    2.3185366E+05    1.0449527E-08    2.3185368E+05
   -4.26   500.000   -4.928E-02    2.5430602E+05    4.6928077E-09    4.5779960E-09    2.5430602E+05    9.7570906E-09    2.5430605E+05
   -4.25   500.000   -5.439E-02    2.7781621E+05    4.4873944E-09    4.3731683E-09    2.7781621E+05    9.2287017E-09    2.7781623E+05
   -4.24   500.000   -5.978E-02    3.0238956E+05    4.3569459E-09    4.2431274E-09    3.0238956E+05    8.8757206E-09    3.0238959E+05
   -4.23   500.000   -6.546E-02    3.2798303E+05    4.3013019E-09    4.1875760E-09    3.2798303E+05    8.6954143E-09    3.2798307E+05
   -4.22   500.000   -7.143E-02    3.5450448E+05    4.3178107E-09    4.2038960E-09    3.5450448E+05    8.6762290E-09    3.5450453E+05
   -4.21   500.000   -7.769E-02    3.8183194E+05    4.4028422E-09    4.2886599E-09    3.8183194E+05    8.8022946E-09    3.8183201E+05
   -4.20   500.000   -8.424E-02    4.0984291E+05    4.5523542E-09    4.4381360E-09    4.0984291E+05    9.0563523E-09    4.0984299E+05
   -4.19   500.000   -9.109E-02    4.3843720E+05    4.7615347E-09    4.6478079E-09    4.3843720E+05    9.4207072E-09    4.3843730E+05
   -4.18   500.000   -9.822E-02    4.6753996E+05    5.0237573E-09    4.9111662E-09    4.6753996E+05    9.8763237E-09    4.6754009E+05
   -4.17   500.000   -1.057E-01    4.9708316E+05    5.3292772E-09    5.2182385E-09    4.9708316E+05    1.0400753E-08    4.9708332E+05
   -4.16   500.000   -1.134E-01    5.2697692E+05    5.6642155E-09    5.5544677E-09    5.2697692E+05    1.0966028E-08    5.2697712E+05
   -4.15   500.000   -1.214E-01    5.5709080E+05    6.0103945E-09    5.9005534E-09    5.5709080E+05    1.1537826E-08    5.5709105E+05
   -4.14   500.000   -1.298E-01    5.8726402E+05    6.3464469E-09    6.2337168E-09    5.8726402E+05    1.2077018E-08    5.8726434E+05
   -4.13   500.000   -1.384E-01    6.1735420E+05    6.6503017E-09    6.5304758E-09    6.1735420E+05    1.2544032E-08    6.1735460E+05
   -4.12   500.000   -1.474E-01    6.4731491E+05    6.9026562E-09    6.7704734E-09    6.4731491E+05    1.2905439E-08    6.4731541E+05
   -4.11   500.000   -1.567E-01    6.7727008E+05    7.0905126E-09    6.9403309E-09    6.7727008E+05    1.3141007E-08    6.7727072E+05
   -4.10   500.000   -1.663E-01    7.0753913E+05    7.2095749E-09    7.0362173E-09    7.0753913E+05    1.3248713E-08    7.0753993E+05
   -4.09   500.000   -1.763E-01    7.3857566E+05    7.2645242E-09    7.0640970E-09    7.3857566E+05    1.3245587E-08    7.3857667E+05
   -4.08   500.000   -1.866E-01    7.7081858E+05    7.2669486E-09    7.0374453E-09    7.7081858E+05    1.3163712E-08    7.7081986E+05
   -4.07   500.000   -1.973E-01    8.0450239E+05    7.2316665E-09    6.9732427E-09    8.0450239E+05    1.3042673E-08    8.0450400E+05
   -4.06   500.000   -2.083E-01    8.3950625E+05    7.1728379E-09    6.8877377E-09    8.3950625E+05    1.2921186E-08    8.3950828E+05
   -4.05   500.000   -2.198E-01    8.7531838E+05    7.1012773E-09    6.7934645E-09    8.7531838E+05    1.2830744E-08    8.7532094E+05
   -4.04   500.000   -2.317E-01    9.1115052E+05    7.0237659E-09    6.6983483E-09    9.1115052E+05    1.2792923E-08    9.1115375E+05
   -4.03   500.000   -2.440E-01    9.4617436E+05    6.9442397E-09    6.6067889E-09    9.4617436E+05    1.2820211E-08    9.4617843E+05
   -4.02   500.000   -2.568E-01    9.7979692E+05    6.8659391E-09    6.5218142E-09    9.7979692E+05    1.2918710E-08    9.7980206E+05
   -4.01   500.000   -2.700E-01    1.0118700E+06    6.7932771E-09    6.4470734E-09    1.0118700E+06    1.3090499E-08    1.0118765E+06
   -4.00   500.000   -2.836E-01    1.0427510E+06    6.7324355E-09    6.3876805E-09    1.0427510E+06    1.3334035E-08    1.0427592E+06
   -3.99   500.000   -2.976E-01    1.0731886E+06    6.6903823E-09    6.3495657E-09    1.0731886E+06    1.3642371E-08    1.0731989E+06
   -3.98   500.000   -3.121E-01    1.1040755E+06    6.6727918E-09    6.3377377E-09    1.1040755E+06    1.4000412E-08    1.1040885E+06
   -3.97   500.000   -3.271E-01    1.1361611E+06    6.6818706E-09    6.3543527E-09    1.1361611E+06    1.4383323E-08    1.1361775E+06
   -3.96   500.000   -3.425E-01    1.1698288E+06    6.7151344E-09    6.3975483E-09    1.1698288E+06    1.4757932E-08    1.1698494E+06
   -3.95   500.000   -3.586E-01    1.2050124E+06    6.7657357E-09    6.4616106E-09    1.2050124E+06    1.5087768E-08    1.2050385E+06
   -3.94   500.000   -3.753E-01    1.2412618E+06    6.8242331E-09    6.5384134E-09    1.2412618E+06    1.5340583E-08    1.2412947E+06
   -3.93   500.000   -3.927E-01    1.2779063E+06    6.8810368E-09    6.6194673E-09    1.2779063E+06    1.5495816E-08    1.2779477E+06
   -3.92   500.000   -4.107E-01    1.3142355E+06    6.9284902E-09    6.6976599E-09    1.3142355E+06    1.5549102E-08    1.3142877E+06
   -3.91   500.000   -4.296E-01    1.3496291E+06    6.9617788E-09    6.7679672E-09    1.3496291E+06    1.5512021E-08    1.3496949E+06
   -3.90   500.000   -4.492E-01    1.3836144E+06    6.9784947E-09    6.8269944E-09    1.3836144E+06    1.5407277E-08    1.3836973E+06
   -3.89   500.000   -4.697E-01    1.4158702E+06    6.9773816E-09    6.8718471E-09    1.4158702E+06    1.5261449E-08    1.4159746E+06
   -3.88   500.000   -4.911E-01    1.4462168E+06    6.9571896E-09    6.8992061E-09    1.4462168E+06    1.5098360E-08    1.4463483E+06
   -3.87   500.000   -5.134E-01    1.4746197E+06    6.9164815E-09    6.9053898E-09    1.4746197E+06    1.4935583E-08    1.4747852E+06
   -3.86   500.000   -5.366E-01    1.5012123E+06    6.8546966E-09    6.8876717E-09    1.5012123E+06    1.4785127E-08    1.5014205E+06
   -3.85   500.000   -5.609E-01    1.5263198E+06    6.7740766E-09    6.8464308E-09    1.5263198E+06    1.4657522E-08    1.5265815E+06
   -3.84   500.000   -5.864E-01    1.5504563E+06    6.6815415E-09    6.7872151E-09    1.5504563E+06    1.4567272E-08    1.5507852E+06
   -3.83   500.000   -6.130E-01    1.5742736E+06    6.5895712E-09    6.7217564E-09    1.5742736E+06    1.4537359E-08    1.5746864E+06
   -3.82   500.000   -6.409E-01    1.5984561E+06    6.5156152E-09    6.6674425E-09    1.5984561E+06    1.4601116E-08    1.5989735E+06
   -3.81   500.000   -6.703E-01    1.6235806E+06    6.4802569E-09    6.6454465E-09    1.6235806E+06    1.4801034E-08    1.6242282E+06
   -3.80   500.000   -7.013E-01    1.6499775E+06    6.5048665E-09    6.6782354E-09    1.6499775E+06    1.5185119E-08    1.6507865E+06
   -3.79   500.000   -7.340E-01    1.6776299E+06    6.6095233E-09    6.7872575E-09    1.6776299E+06    1.5801992E-08    1.6786379E+06
   -3.78   500.000   -7.686E-01    1.7061391E+06    6.8116188E-09    6.9912685E-09    1.7061391E+06    1.6695791E-08    1.7073916E+06
   -3.77   500.000   -8.053E-01    1.7347609E+06    7.1250481E-09    7.3052773E-09    1.7347609E+06    1.7901476E-08    1.7363111E+06
   -3.76   500.000   -8.441E-01    1.7624953E+06    7.5595835E-09    7.7397572E-09    1.7624953E+06    1.9440639E-08    1.7644055E+06
   -3.75   500.000   -8.851E-01    1.7882074E+06    8.1200291E-09    8.2997493E-09    1.7882074E+06    2.1317777E-08    1.7905479E+06
   -3.74   500.000   -9.286E-01    1.8107530E+06    8.8050184E-09    8.9837075E-09    1.8107530E+06    2.3517157E-08    1.8136016E+06
   -3.73   500.000   -9.744E-01    1.8290977E+06    9.6056552E-09    9.7822535E-09    1.8290977E+06    2.6000748E-08    1.8325367E+06
   -3.72   500.000   -1.023E+00    1.8424231E+06    1.0504416E-08    1.0677224E-08    1.8424231E+06    2.8707904E-08    1.8465350E+06
   -3.71   500.000   -1.074E+00    1.8502223E+06    1.1474755E-08    1.1641417E-08    1.8502223E+06    3.1557359E-08    1.8550839E+06
   -3.70   500.000   -1.127E+00    1.8523814E+06    1.2481724E-08    1.2639333E-08    1.8523814E+06    3.4451636E-08    1.8580552E+06
   -3.69   500.000   -1.183E+00    1.8492339E+06    1.3483756E-08    1.3629027E-08    1.8492339E+06    3.7283511E-08    1.8557587E+06
   -3.68   500.000   -1.241E+00    1.8415694E+06    1.4435698E-08    1.4565168E-08    1.8415694E+06    3.9943985E-08    1.8489512E+06
   -3.67   500.000   -1.303E+00    1.8305805E+06    1.5293074E-08    1.5403288E-08    1.8305805E+06    4.2331340E-08    1.8387845E+06
   -3.66   500.000   -1.366E+00    1.8177404E+06    1.6017302E-08    1.6104961E-08    1.8177404E+06    4.4360782E-08    1.8266874E+06
   -3.65   500.000   -1.433E+00    1.8046221E+06    1.6580968E-08    1.6643067E-08    1.8046221E+06    4.5973557E-08    1.8141894E+06
   -3.64   500.000   -1.501E+00    1.7926722E+06    1.6971627E-08    1.7005607E-08    1.7926722E+06    4.7143457E-08    1.8027007E+06
   -3.63   500.000   -1.573E+00    1.7829636E+06    1.7192500E-08    1.7196454E-08    1.7829636E+06    4.7878352E-08    1.7932690E+06
   -3.62   500.000   -1.647E+00    1.7759601E+06    1.7259298E-08    1.7232225E-08    1.7759601E+06    4.8215590E-08    1.7863475E+06
   -3.61   500.000   -1.723E+00    1.7713398E+06    1.7194084E-08    1.7136155E-08    1.7713398E+06    4.8212509E-08    1.7816182E+06
   -3.60   500.000   -1.802E+00    1.7679308E+06    1.7018605E-08    1.6931370E-08    1.7679308E+06    4.7935532E-08    1.7779263E+06
   -3.59   500.000   -1.882E+00    1.7638016E+06    1.6749900E-08    1.6636370E-08    1.7638016E+06    4.7451705E-08    1.7733668E+06
   -3.58   500.000   -1.964E+00    1.7565117E+06    1.6399869E-08    1.6264423E-08    1.7565117E+06    4.6824887E-08    1.7655316E+06
   -3.57   500.000   -2.047E+00    1.7434856E+06    1.5978456E-08    1.5826565E-08    1.7434856E+06    4.6115911E-08    1.7518786E+06
   -3.56   500.000   -2.130E+00    1.7224300E+06    1.5498251E-08    1.5336059E-08    1.7224300E+06    4.5383933E-08    1.7301463E+06
   -3.55   500.000   -2.215E+00    1.6917003E+06    1.4977846E-08    1.4811684E-08    1.6917003E+06    4.4685992E-08    1.6987174E+06
   -3.54   500.000   -2.300E+00    1.6505364E+06    1.4442271E-08    1.4278179E-08    1.6505364E+06    4.4073660E-08    1.6568544E+06
   -3.53   500.000   -2.384E+00    1.5991305E+06    1.3920666E-08    1.3764003E-08    1.5991305E+06    4.3588273E-08    1.6047667E+06
   -3.52   500.000   -2.469E+00    1.5385331E+06    1.3442874E-08    1.3298051E-08    1.5385331E+06    4.3257915E-08    1.5435179E+06
   -3.51   500.000   -2.554E+00    1.4704443E+06    1.3037022E-08    1.2907366E-08    1.4704443E+06    4.3098962E-08    1.4748175E+06
   -3.50   500.000   -2.638E+00    1.3969477E+06    1.2729307E-08    1.2617043E-08    1.3969477E+06    4.3122839E-08    1.4007553E+06
   -3.49   500.000   -2.723E+00    1.3202442E+06    1.2545858E-08    1.2452173E-08    1.3202442E+06    4.3346013E-08    1.3235362E+06
   -3.48   500.000   -2.807E+00    1.2424258E+06    1.2515400E-08    1.2440556E-08    1.2424258E+06    4.3799451E-08    1.2452536E+06
   -3.47   500.000   -2.890E+00    1.1653068E+06    1.2671049E-08    1.2614521E-08    1.1653068E+06    4.4533820E-08    1.1677220E+06
   -3.46   500.000   -2.974E+00    1.0903165E+06    1.3049970E-08    1.3010578E-08    1.0903165E+06    4.5618104E-08    1.0923685E+06
   -3.45   500.000   -3.056E+00    1.0184436E+06    1.3690300E-08    1.3666344E-08    1.0184436E+06    4.7131283E-08    1.0201789E+06
   -3.44   500.000   -3.136E+00    9.5023113E+05    1.4625429E-08    1.4614820E-08    9.5023113E+05    4.9148109E-08    9.5169202E+05
   -3.43   500.000   -3.216E+00    8.8581669E+05    1.5876127E-08    1.5876538E-08    8.8581669E+05    5.1720625E-08    8.8704126E+05
   -3.42   500.000   -3.292E+00    8.2501860E+05    1.7441337E-08    1.7450369E-08    8.2501860E+05    5.4857199E-08    8.2604053E+05
   -3.41   500.000   -3.366E+00    7.6745652E+05    1.9288897E-08    1.9304255E-08    7.6745652E+05    5.8501415E-08    7.6830542E+05
   -3.40   500.000   -3.437E+00    7.1268825E+05    2.1348054E-08    2.1367710E-08    7.1268825E+05    6.2514408E-08    7.1339008E+05
   -3.39   500.000   -3.504E+00    6.6033794E+05    2.3506263E-08    2.3528572E-08    6.6033794E+05    6.6666034E-08    6.6091538E+05
   -3.38   500.000   -3.567E+00    6.1019487E+05    2.5612968E-08    2.5636714E-08    6.1019487E+05    7.0641310E-08    6.1066772E+05
   -3.37   500.000   -3.626E+00    5.6227266E+05    2.7492381E-08    2.7516757E-08    5.6227266E+05    7.4067510E-08    5.6265811E+05
   -3.36   500.000   -3.681E+00    5.1682958E+05    2.8965370E-08    2.8989902E-08    5.1682958E+05    7.6562896E-08    5.1714246E+05
   -3.35   500.000   -3.732E+00    4.7435726E+05    2.9877536E-08    2.9901981E-08    4.7435726E+05    7.7800699E-08    4.7461027E+05
   -3.34   500.000   -3.778E+00    4.3554580E+05    3.0127372E-08    3.0151634E-08    4.3554580E+05    7.7574042E-08    4.3574972E+05
   -3.33   500.000   -3.821E+00    4.0123199E+05    2.9686667E-08    2.9710739E-08    4.0123199E+05    7.5843250E-08    4.0139587E+05
   -3.32   500.000   -3.861E+00    3.7233674E+05    2.8606648E-08    2.8630597E-08    3.7233674E+05    7.2750075E-08    3.7246811E+05
   -3.31   500.000   -3.897E+00    3.4979881E+05    2.7007697E-08    2.7031666E-08    3.4979881E+05    6.8593709E-08    3.4990391E+05
   -3.30   500.000   -3.932E+00    3.3451313E+05    2.5056059E-08    2.5080285E-08    3.3451313E+05    6.3776585E-08    3.3459707E+05
   -3.29   500.000   -3.964E+00    3.2728123E+05    2.2934880E-08    2.2959706E-08    3.2728123E+05    5.8737087E-08    3.2734817E+05
   -3.28   500.000   -3.996E+00    3.2877882E+05    2.0817487E-08    2.0843354E-08    3.2877882E+05    5.3887460E-08    3.2883214E+05
   -3.27   500.000   -4.028E+00    3.3954065E+05    1.8848282E-08    1.8875716E-08    3.3954065E+05    4.9569312E-08    3.3958308E+05
   -3.26   500.000   -4.061E+00    3.5995817E+05    1.7132984E-08    1.7162571E-08    3.5995817E+05    4.6030406E-08    3.5999192E+05
   -3.25   500.000   -4.094E+00    3.9028198E+05    1.5736877E-08    1.5769235E-08    3.9028198E+05    4.3419579E-08    3.9030880E+05
   -3.24   500.000   -4.130E+00    4.3062050E+05    1.4688314E-08    1.4724089E-08    4.3062050E+05    4.1793372E-08    4.3064181E+05
   -3.23   500.000   -4.169E+00    4.8092919E+05    1.3984698E-08    1.4024577E-08    4.8092919E+05    4.1128179E-08    4.8094611E+05
   -3.22   500.000   -4.210E+00    5.4098882E+05    1.3598953E-08    1.3643730E-08    5.4098882E+05    4.1333697E-08    5.4100226E+05
   -3.21   500.000   -4.255E+00    6.1037784E+05    1.3485467E-08    1.3536148E-08    6.1037784E+05    4.2265726E-08    6.1038850E+05
   -3.20   500.000   -4.303E+00    6.8844711E+05    1.3585254E-08    1.3643221E-08    6.8844711E+05    4.3738049E-08    6.8845556E+05
   -3.19   500.000   -4.354E+00    7.7430745E+05    1.3830625E-08    1.3897818E-08    7.7430745E+05    4.5534059E-08    7.7431416E+05
   -3.18   500.000   -4.408E+00    8.6683760E+05    1.4149809E-08    1.4228903E-08    8.6683760E+05    4.7419207E-08    8.6684292E+05
   -3.17   500.000   -4.464E+00    9.6471462E+05    1.4471953E-08    1.4566449E-08    9.6471462E+05    4.9155405E-08    9.6471885E+05
   -3.16   500.000   -4.522E+00    1.0664623E+06    1.4732580E-08    1.4846753E-08    1.0664623E+06    5.0518153E-08    1.0664656E+06
   -3.15   500.000   -4.580E+00    1.1705080E+06    1.4879070E-08    1.5017711E-08    1.1705080E+06    5.1316108E-08    1.1705106E+06
   -3.14   500.000   -4.640E+00    1.2752408E+06    1.4875322E-08    1.5043264E-08    1.2752408E+06    5.1410998E-08    1.2752429E+06
   -3.13   500.000   -4.698E+00    1.3790700E+06    1.4704590E-08    1.4906066E-08    1.3790700E+06    5.0733951E-08    1.3790716E+06
   -3.12   500.000   -4.756E+00    1.4804922E+06    1.4369803E-08    1.4607750E-08    1.4804922E+06    4.9293627E-08    1.4804935E+06
   -3.11   500.000   -4.812E+00    1.5781840E+06    1.3891301E-08    1.4166730E-08    1.5781840E+06    4.7172883E-08    1.5781851E+06
   -3.10   500.000   -4.866E+00    1.6711297E+06    1.3302471E-08    1.3614040E-08    1.6711297E+06    4.4513890E-08    1.6711305E+06
   -3.09   500.000   -4.919E+00    1.7587895E+06    1.2644225E-08    1.2988068E-08    1.7587895E+06    4.1495232E-08    1.7587902E+06
   -3.08   500.000   -4.968E+00    1.8412948E+06    1.1959368E-08    1.2329219E-08    1.8412948E+06    3.8306767E-08    1.8412953E+06
   -3.07   500.000   -5.016E+00    1.9196334E+06    1.1287946E-08    1.1675501E-08    1.9196334E+06    3.5127992E-08    1.9196338E+06
   -3.06   500.000   -5.061E+00    1.9957641E+06    1.0664319E-08    1.1059802E-08    1.9957641E+06    3.2113584E-08    1.9957644E+06
   -3.05   500.000   -5.103E+00    2.0725815E+06    1.0116241E-08    1.0509098E-08    2.0725815E+06    2.9386882E-08    2.0725817E+06
   -3.04   500.000   -5.143E+00    2.1536733E+06    9.6655094E-09    1.0045146E-08    2.1536733E+06    2.7039640E-08    2.1536735E+06
   -3.03   500.000   -5.181E+00    2.2428679E+06    9.3292450E-09    9.6857265E-09    2.2428679E+06    2.5135143E-08    2.2428681E+06
   -3.02   500.000   -5.217E+00    2.3436461E+06    9.1207817E-09    9.4454273E-09    2.3436461E+06    2.3711864E-08    2.3436462E+06
   -3.01   500.000   -5.251E+00    2.4585500E+06    9.0495079E-09    9.3353316E-09    2.4585500E+06    2.2785816E-08    2.4585501E+06
   -3.00   500.000   -5.284E+00    2.5887298E+06    9.1195565E-09    9.3615664E-09    2.5887298E+06    2.2350926E-08    2.5887299E+06
   -2.99   500.000   -5.316E+00    2.7337150E+06    9.3276890E-09    9.5230766E-09    2.7337150E+06    2.2377719E-08    2.7337151E+06
   -2.98   500.000   -5.347E+00    2.8914125E+06    9.6609146E-09    9.8091674E-09    2.8914125E+06    2.2811192E-08    2.8914125E+06
   -2.97   500.000   -5.378E+00    3.0582620E+06    1.0094448E-08    1.0197377E-08    3.0582620E+06    2.3569149E-08    3.0582621E+06
   -2.96   500.000   -5.409E+00    3.2294554E+06    1.0590683E-08    1.0652326E-08    3.2294554E+06    2.4542561E-08    3.2294554E+06
   -2.95   500.000   -5.439E+00    3.3991654E+06    1.1100008E-08    1.1126365E-08    3.3991654E+06    2.5599757E-08    3.3991655E+06
   -2.94   500.000   -5.469E+00    3.5608045E+06    1.1564292E-08    1.1562893E-08    3.5608045E+06    2.6595952E-08    3.5608045E+06
   -2.93   500.000   -5.499E+00    3.7073923E+06    1.1923466E-08    1.1902811E-08    3.7073923E+06    2.7388531E-08    3.7073923E+06
   -2.92   500.000   -5.530E+00    3.8321119E+06    1.2124557E-08    1.2093529E-08    3.8321119E+06    2.7856352E-08    3.8321119E+06
   -2.91   500.000   -5.560E+00    3.9290524E+06    1.2131236E-08    1.2098588E-08    3.9290524E+06    2.7918900E-08    3.9290524E+06
   -2.90   500.000   -5.590E+00    3.9940159E+06    1.1931010E-08    1.1904965E-08    3.9940159E+06    2.7549643E-08    3.9940159E+06
   -2.89   500.000   -5.621E+00    4.0251816E+06    1.1537430E-08    1.1525426E-08    4.0251816E+06    2.6778812E-08    4.0251817E+06
   -2.88   500.000   -5.651E+00    4.0234260E+06    1.0986382E-08    1.0994906E-08    4.0234260E+06    2.5684108E-08    4.0234260E+06
   -2.87   500.000   -5.681E+00    3.9922022E+06    1.0327683E-08    1.0362129E-08    3.9922022E+06    2.4372215E-08    3.9922022E+06
   -2.86   500.000   -5.711E+00    3.9370277E+06    9.6149143E-09    9.6793909E-09    3.9370277E+06    2.2957066E-08    3.9370277E+06
   -2.85   500.000   -5.741E+00    3.8647453E+06    8.8966209E-09    8.9936834E-09    3.8647453E+06    2.1541176E-08    3.8647453E+06
   -2.84   500.000   -5.770E+00    3.7827695E+06    8.2109496E-09    8.3413023E-09    3.7827695E+06    2.0204240E-08    3.7827695E+06
   -2.83   500.000   -5.799E+00    3.6984889E+06    7.5841830E-09    7.7464391E-09    3.6984889E+06    1.8999983E-08    3.6984889E+06
   -2.82   500.000   -5.827E+00    3.6189040E+06    7.0323005E-09    7.2229042E-09    3.6189040E+06    1.7959568E-08    3.6189040E+06
   -2.81   500.000   -5.855E+00    3.5504771E+06    6.5641193E-09    6.7774766E-09    3.5504771E+06    1.7098578E-08    3.5504771E+06
   -2.80   500.000   -5.884E+00    3.4991049E+06    6.1846622E-09    6.4134498E-09    3.4991049E+06    1.6424585E-08    3.4991049E+06
   -2.79   500.000   -5.912E+00    3.4701155E+06    5.8978893E-09    6.1334474E-09    3.4701155E+06    1.5943326E-08    3.4701155E+06
   -2.78   500.000   -5.940E+00    3.4682290E+06    5.7084758E-09    5.9411834E-09    3.4682290E+06    1.5662701E-08    3.4682290E+06
   -2.77   500.000   -5.968E+00    3.4974727E+06    5.6226985E-09    5.8422881E-09    3.4974727E+06    1.5594854E-08    3.4974727E+06
   -2.76   500.000   -5.996E+00    3.5610653E+06    5.6486429E-09    5.8444860E-09    3.5610653E+06    1.5756989E-08    3.5610653E+06
   -2.75   500.000   -6.024E+00    3.6612803E+06    5.7958962E-09    5.9573434E-09    3.6612803E+06    1.6171427E-08    3.6612803E+06
   -2.74   500.000   -6.052E+00    3.7992736E+06    6.0747902E-09    6.1916443E-09    3.7992736E+06    1.6864948E-08    3.7992736E+06
   -2.73   500.000   -6.081E+00    3.9748590E+06    6.4951992E-09    6.5583478E-09    3.9748590E+06    1.7867111E-08    3.9748590E+06
   -2.72   500.000   -6.110E+00    4.1862491E+06    7.0649477E-09    7.0671127E-09    4.1862491E+06    1.9207223E-08    4.1862491E+06
   -2.71   500.000   -6.140E+00    4.4298459E+06    7.7879808E-09    7.7244953E-09    4.4298459E+06    2.0909909E-08    4.4298459E+06
   -2.70   500.000   -6.170E+00    4.7002038E+06    8.6625382E-09    8.5320354E-09    4.7002038E+06    2.2989651E-08    4.7002038E+06
   -2.69   500.000   -6.200E+00    4.9902709E+06    9.6795854E-09    9.4844845E-09    4.9902709E+06    2.5444913E-08    4.9902709E+06
   -2.68   500.000   -6.230E+00    5.2919210E+06    1.0821714E-08    1.0568383E-08    5.2919210E+06    2.8252654E-08    5.2919210E+06
   -2.67   500.000   -6.261E+00    5.5966583E+06    1.2062659E-08    1.1761151E-08    5.5966583E+06    3.1364044E-08    5.5966583E+06
   -2.66   500.000   -6.293E+00    5.8963005E+06    1.3367556E-08    1.3030838E-08    5.8963005E+06    3.4702237E-08    5.8963005E+06
   -2.65   500.000   -6.325E+00    6.1834560E+06    1.4694022E-08    1.4336736E-08    6.1834560E+06    3.8163068E-08    6.1834560E+06
   -2.64   500.000   -6.357E+00    6.4517301E+06    1.5994182E-08    1.5631080E-08    6.4517301E+06    4.1619444E-08    6.4517301E+06
   -2.63   500.000   -6.389E+00    6.6957361E+06    1.7217758E-08    1.6862110E-08    6.6957361E+06    4.4930071E-08    6.6957361E+06
   -2.62   500.000   -6.422E+00    6.9110778E+06    1.8316365E-08    1.7978687E-08    6.9110778E+06    4.7952768E-08    6.9110778E+06
   -2.61   500.000   -6.454E+00    7.0944518E+06    1.9248964E-08    1.8936362E-08    7.0944518E+06    5.0561707E-08    7.0944518E+06
   -2.60   500.000   -6.486E+00    7.2438923E+06    1.9987903E-08    1.9704165E-08    7.2438923E+06    5.2666165E-08    7.2438923E+06
   -2.59   500.000   -6.518E+00    7.3590200E+06    2.0524107E-08    2.0270456E-08    7.3590200E+06    5.4226074E-08    7.3590200E+06
   -2.58   500.000   -6.550E+00    7.4410493E+06    2.0869325E-08    2.0645574E-08    7.4410493E+06    5.5258236E-08    7.4410493E+06
   -2.57   500.000   -6.581E+00    7.4923533E+06    2.1053597E-08    2.0859357E-08    7.4923533E+06    5.5828374E-08    7.4923533E+06
   -2.56   500.000   -6.611E+00    7.5155985E+06    2.1117655E-08    2.0953254E-08    7.5155985E+06    5.6028724E-08    7.5155985E+06
   -2.55   500.000   -6.641E+00    7.5127454E+06    2.1102137E-08    2.0969032E-08    7.5127454E+06    5.5947134E-08    7.5127454E+06
   -2.54   500.000   -6.670E+00    7.4843903E+06    2.1037208E-08    2.0937808E-08    7.4843903E+06    5.5638201E-08    7.4843903E+06
   -2.53   500.000   -6.699E+00    7.4298506E+06    2.0936398E-08    2.0873374E-08    7.4298506E+06    5.5107316E-08    7.4298506E+06
   -2.52   500.000   -6.727E+00    7.3480688E+06    2.0797016E-08    2.0772274E-08    7.3480688E+06    5.4314101E-08    7.3480688E+06
   -2.51   500.000   -6.755E+00    7.2389949E+06    2.0606957E-08    2.0620532E-08    7.2389949E+06    5.3194278E-08    7.2389949E+06
   -2.50   500.000   -6.782E+00    7.1048329E+06    2.0355276E-08    2.0404365E-08    7.1048329E+06    5.1691755E-08    7.1048329E+06
   -2.49   500.000   -6.808E+00    6.9505738E+06    2.0042399E-08    2.0120735E-08    6.9505738E+06    4.9788662E-08    6.9505738E+06
   -2.48   500.000   -6.834E+00    6.7835657E+06    1.9686233E-08    1.9783900E-08    6.7835657E+06    4.7522285E-08    6.7835657E+06
   -2.47   500.000   -6.859E+00    6.6123060E+06    1.9322288E-08    1.9426029E-08    6.6123060E+06    4.4983728E-08    6.6123060E+06
   -2.46   500.000   -6.884E+00    6.4449629E+06    1.8998463E-08    1.9092464E-08    6.4449629E+06    4.2300735E-08    6.4449629E+06
   -2.45   500.000   -6.908E+00    6.2881664E+06    1.8766840E-08    1.8833922E-08    6.2881664E+06    3.9612482E-08    6.2881664E+06
   -2.44   500.000   -6.931E+00    6.1464054E+06    1.8675149E-08    1.8698221E-08    6.1464054E+06    3.7045188E-08    6.1464054E+06
   -2.43   500.000   -6.954E+00    6.0220668E+06    1.8759555E-08    1.8723148E-08    6.0220668E+06    3.4694697E-08    6.0220668E+06
   -2.42   500.000   -6.977E+00    5.9159502E+06    1.9039209E-08    1.8930856E-08    5.9159502E+06    3.2618084E-08    5.9159502E+06
   -2.41   500.000   -6.999E+00    5.8280495E+06    1.9512246E-08    1.9323526E-08    5.8280495E+06    3.0833296E-08    5.8280495E+06
   -2.40   500.000   -7.020E+00    5.7584380E+06    2.0152986E-08    1.9880091E-08    5.7584380E+06    2.9324376E-08    5.7584380E+06
   -2.39   500.000   -7.041E+00    5.7081200E+06    2.0910580E-08    2.0554361E-08    5.7081200E+06    2.8049765E-08    5.7081200E+06
   -2.38   500.000   -7.062E+00    5.6796707E+06    2.1709901E-08    2.1275423E-08    5.6796707E+06    2.6951642E-08    5.6796707E+06
   -2.37   500.000   -7.082E+00    5.6774550E+06    2.2455787E-08    2.1951471E-08    5.6774550E+06    2.5964908E-08    5.6774550E+06
   -2.36   500.000   -7.101E+00    5.7072804E+06    2.3041580E-08    2.2478038E-08    5.7072804E+06    2.5025167E-08    5.7072804E+06
   -2.35   500.000   -7.120E+00    5.7755278E+06    2.3362125E-08    2.2750836E-08    5.7755278E+06    2.4075702E-08    5.7755278E+06
   -2.34   500.000   -7.139E+00    5.8880159E+06    2.3329898E-08    2.2681869E-08    5.8880159E+06    2.3073622E-08    5.8880159E+06
   -2.33   500.000   -7.158E+00    6.0489654E+06    2.2891124E-08    2.2215642E-08    6.0489654E+06    2.1994983E-08    6.0489654E+06
   -2.32   500.000   -7.177E+00    6.2603611E+06    2.2037468E-08    2.1341014E-08    6.2603611E+06    2.0837947E-08    6.2603611E+06
   -2.31   500.000   -7.197E+00    6.5218098E+06    2.0809357E-08    2.0094719E-08    6.5218098E+06    1.9622810E-08    6.5218098E+06
   -2.30   500.000   -7.216E+00    6.8307716E+06    1.9289382E-08    1.8554986E-08    6.8307716E+06    1.8388237E-08    6.8307716E+06
   -2.29   500.000   -7.236E+00    7.1829120E+06    1.7587600E-08    1.6827066E-08    7.1829120E+06    1.7184285E-08    7.1829120E+06
   -2.28   500.000   -7.257E+00    7.5723252E+06    1.5823122E-08    1.5025102E-08    7.5723252E+06    1.6063821E-08    7.5723252E+06
   -2.27   500.000   -7.278E+00    7.9914976E+06    1.4106890E-08    1.3255282E-08    7.9914976E+06    1.5074290E-08    7.9914976E+06
   -2.26   500.000   -7.300E+00    8.4310586E+06    1.2529182E-08    1.1603866E-08    8.4310586E+06    1.4251386E-08    8.4310586E+06
   -2.25   500.000   -7.323E+00    8.8795188E+06    1.1153130E-08    1.0131399E-08    8.8795188E+06    1.3615401E-08    8.8795188E+06
   -2.24   500.000   -7.346E+00    9.3232406E+06    1.0013674E-08    8.8724390E-09    9.3232406E+06    1.3170308E-08    9.3232406E+06
   -2.23   500.000   -7.370E+00    9.7467987E+06    9.1203963E-09    7.8390521E-09    9.7467987E+06    1.2905184E-08    9.7467987E+06
   -2.22   500.000   -7.394E+00    1.0133721E+07    8.4625041E-09    7.0260746E-09    1.0133721E+07    1.2797150E-08    1.0133721E+07
   -2.21   500.000   -7.419E+00    1.0467455E+07    8.0145117E-09    6.4164778E-09    1.0467455E+07    1.2814849E-08    1.0467455E+07
   -2.20   500.000   -7.444E+00    1.0732372E+07    7.7415432E-09    5.9857208E-09    1.0732372E+07    1.2921432E-08    1.0732372E+07
   -2.19   500.000   -7.469E+00    1.0914693E+07    7.6036057E-09    5.7046275E-09    1.0914693E+07    1.3076426E-08    1.0914693E+07
   -2.18   500.000   -7.495E+00    1.1003341E+07    7.5586393E-09    5.5409446E-09    1.1003341E+07    1.3236549E-08    1.1003341E+07
   -2.17   500.000   -7.520E+00    1.0990770E+07    7.5646240E-09    5.4602391E-09    1.0990770E+07    1.3356264E-08    1.0990770E+07
   -2.16   500.000   -7.544E+00    1.0873850E+07    7.5813742E-09    5.4269940E-09    1.0873850E+07    1.3389213E-08    1.0873850E+07
   -2.15   500.000   -7.568E+00    1.0654761E+07    7.5726688E-09    5.4065643E-09    1.0654761E+07    1.3291406E-08    1.0654761E+07
   -2.14   500.000   -7.591E+00    1.0341730E+07    7.5089779E-09    5.3681060E-09    1.0341730E+07    1.3026109E-08    1.0341730E+07
   -2.13   500.000   -7.614E+00    9.9493397E+06    7.3704151E-09    5.2879200E-09    9.9493397E+06    1.2569413E-08    9.9493397E+06
   -2.12   500.000   -7.635E+00    9.4981178E+06    7.1490156E-09    5.1522063E-09    9.4981178E+06    1.1914725E-08    9.4981178E+06
   -2.11   500.000   -7.656E+00    9.0132409E+06    6.8493652E-09    4.9582349E-09    9.0132409E+06    1.1074572E-08    9.0132409E+06
   -2.10   500.000   -7.675E+00    8.5224487E+06    6.4870466E-09    4.7134269E-09    8.5224487E+06    1.0078964E-08    8.5224487E+06
   -2.09   500.000   -7.693E+00    8.0534757E+06    6.0850998E-09    4.4325279E-09    8.0534757E+06    8.9707273E-09    8.0534757E+06
   -2.08   500.000   -7.711E+00    7.6314273E+06    5.6693230E-09    4.1336319E-09    7.6314273E+06    7.7991661E-09    7.6314273E+06
   -2.07   500.000   -7.727E+00    7.2764896E+06    5.2635209E-09    3.8340483E-09    7.2764896E+06    6.6136622E-09    7.2764896E+06
   -2.06   500.000   -7.743E+00    7.0022602E+06    4.8856965E-09    3.5469068E-09    7.0022602E+06    5.4584924E-09    7.0022602E+06
   -2.05   500.000   -7.758E+00    6.8148806E+06    4.5458461E-09    3.2790899E-09    6.8148806E+06    4.3695078E-09    6.8148806E+06
   -2.04   500.000   -7.774E+00    6.7130652E+06    4.2456005E-09    3.0307385E-09    6.7130652E+06    3.3727065E-09    6.7130652E+06
   -2.03   500.000   -7.788E+00    6.6890178E+06    3.9795860E-09    2.7962585E-09    6.6890178E+06    2.4843470E-09    6.6890178E+06
   -2.02   500.000   -7.803E+00    6.7301121E+06    3.7380759E-09    2.5665054E-09    6.7301121E+06    1.7121086E-09    6.7301121E+06
   -2.01   500.000   -7.818E+00    6.8210901E+06    3.5102860E-09    2.3316122E-09    6.8210901E+06    1.0568161E-09    6.8210901E+06
   -2.00   500.000   -7.833E+00    6.9464436E+06    3.2875456E-09    2.0837833E-09    6.9464436E+06    5.1430612E-10    6.9464436E+06
   -1.99   500.000   -7.848E+00    7.0926072E+06    3.0656172E-09    1.8193742E-09    7.0926072E+06    7.7078491E-11    7.0926072E+06
   -1.98   500.000   -7.864E+00    7.2495904E+06    2.8456566E-09    1.5397608E-09    7.2495904E+06   -2.6451244E-10    7.2495904E+06
   -1.97   500.000   -7.879E+00    7.4117423E+06    2.6336695E-09    1.2508558E-09    7.4117423E+06   -5.2157877E-10    7.4117423E+06
   -1.96   500.000   -7.894E+00    7.5774880E+06    2.4387187E-09    9.6152816E-10    7.5774880E+06   -7.0634928E-10    7.5774880E+06
   -1.95   500.000   -7.910E+00    7.7481240E+06    2.2704289E-09    6.8146756E-10    7.7481240E+06   -8.3180758E-10    7.7481240E+06
   -1.94   500.000   -7.926E+00    7.9260321E+06    2.1364746E-09    4.1911915E-10    7.9260321E+06   -9.1100817E-10    7.9260321E+06
   -1.93   500.000   -7.941E+00    8.1128660E+06    2.0406785E-09    1.8019879E-10    8.1128660E+06   -9.5599199E-10    8.1128660E+06
   -1.92   500.000   -7.957E+00    8.3082673E+06    1.9821699E-09   -3.2930365E-11    8.3082673E+06   -9.7653504E-10    8.3082673E+06
   -1.91   500.000   -7.973E+00    8.5094755E+06    1.9557788E-09   -2.2099200E-10    8.5094755E+06   -9.7917857E-10    8.5094755E+06
   -1.90   500.000   -7.989E+00    8.7118757E+06    1.9535294E-09   -3.8682491E-10    8.7118757E+06   -9.6697299E-10    8.7118757E+06
   -1.89   500.000   -8.005E+00    8.9102140E+06    1.9668123E-09   -5.3403262E-10    8.9102140E+06   -9.4011356E-10    8.9102140E+06
   -1.88   500.000   -8.021E+00    9.1000159E+06    1.9886106E-09   -6.6564327E-10    9.1000159E+06   -8.9728045E-10    9.1000159E+06
   -1.87   500.000   -8.037E+00    9.2787389E+06    2.0151411E-09   -7.8313804E-10    9.2787389E+06   -8.3720469E-10    9.2787389E+06
   -1.86   500.000   -8.053E+00    9.4463421E+06    2.0464491E-09   -8.8608080E-10    9.4463421E+06   -7.5990312E-10    9.4463421E+06
   -1.85   500.000   -8.069E+00    9.6051633E+06    2.0858369E-09   -9.7238346E-10    9.6051633E+06   -6.6718024E-10    9.6051633E+06
   -1.84   500.000   -8.085E+00    9.7591652E+06    2.1383710E-09   -1.0390218E-09    9.7591652E+06   -5.6228845E-10    9.7591652E+06
   -1.83   500.000   -8.102E+00    9.9126808E+06    2.2089927E-09   -1.0828453E-09    9.9126808E+06   -4.4893159E-10    9.9126808E+06
   -1.82   500.000   -8.118E+00    1.0068834E+07    2.3008564E-09   -1.1010807E-09    1.0068834E+07   -3.2997633E-10    1.0068834E+07
   -1.81   500.000   -8.135E+00    1.0227894E+07    2.4144230E-09   -1.0912660E-09    1.0227894E+07   -2.0626298E-10    1.0227894E+07
   -1.80   500.000   -8.151E+00    1.0385992E+07    2.5475786E-09   -1.0506430E-09    1.0385992E+07   -7.5815482E-11    1.0385992E+07
   -1.79   500.000   -8.168E+00    1.0534713E+07    2.6967204E-09   -9.7534596E-10    1.0534713E+07    6.6389731E-11    1.0534713E+07
   -1.78   500.000   -8.186E+00    1.0661988E+07    2.8584594E-09   -8.5988105E-10    1.0661988E+07    2.2806822E-10    1.0661988E+07
   -1.77   500.000   -8.203E+00    1.0754259E+07    3.0314161E-09   -6.9727942E-10    1.0754259E+07    4.1876528E-10    1.0754259E+07
   -1.76   500.000   -8.221E+00    1.0799404E+07    3.2175766E-09   -4.7999208E-10    1.0799404E+07    6.4866253E-10    1.0799404E+07
   -1.75   500.000   -8.238E+00    1.0789541E+07    3.4228290E-09   -2.0124986E-10    1.0789541E+07    9.2730554E-10    1.0789541E+07
   -1.74   500.000   -8.256E+00    1.0722875E+07    3.6565601E-09    1.4357467E-10    1.0722875E+07    1.2625239E-09    1.0722875E+07
   -1.73   500.000   -8.274E+00    1.0604147E+07    3.9304567E-09    5.5601957E-10    1.0604147E+07    1.6597423E-09    1.0604147E+07
   -1.72   500.000   -8.292E+00    1.0443697E+07    4.2568270E-09    1.0342008E-09    1.0443697E+07    2.1217374E-09    1.0443697E+07
   -1.71   500.000   -8.309E+00    1.0255456E+07    4.6467729E-09    1.5730510E-09    1.0255456E+07    2.6487597E-09    1.0255456E+07
   -1.70   500.000   -8.326E+00    1.0054316E+07    5.1084639E-09    2.1649336E-09    1.0054316E+07    3.2388699E-09    1.0054316E+07
   -1.69   500.000   -8.343E+00    9.8533414E+06    5.6456844E-09    2.8004148E-09    9.8533414E+06    3.8883607E-09    9.8533414E+06
   -1.68   500.000   -8.360E+00    9.6613515E+06    6.2568112E-09    3.4690532E-09    9.6613515E+06    4.5921915E-09    9.6613515E+06
   -1.67   500.000   -8.376E+00    9.4814276E+06    6.9344206E-09    4.1601585E-09    9.4814276E+06    5.3444165E-09    9.4814276E+06
   -1.66   500.000   -8.392E+00    9.3108011E+06    7.6656872E-09    4.8634930E-09    9.3108011E+06    6.1385566E-09    9.3108011E+06
   -1.65   500.000   -8.408E+00    9.1422455E+06    8.4335478E-09    5.5697746E-09    9.1422455E+06    6.9677207E-09    9.1422456E+06
   -1.64   500.000   -8.424E+00    8.9666332E+06    9.2182553E-09    6.2706540E-09    8.9666332E+06    7.8240696E-09    8.9666333E+06
   -1.63   500.000   -8.439E+00    8.7759116E+06    9.9986681E-09    6.9577644E-09    8.7759116E+06    8.6971645E-09    8.7759117E+06
   -1.62   500.000   -8.454E+00    8.5656221E+06    1.0752672E-08    7.6207126E-09    8.5656221E+06    9.5711061E-09    8.5656222E+06
   -1.61   500.000   -8.468E+00    8.3363003E+06    1.1456659E-08    8.2445104E-09    8.3363003E+06    1.0421205E-08    8.3363005E+06
   -1.60   500.000   -8.482E+00    8.0935485E+06    1.2084784E-08    8.8076441E-09    8.0935485E+06    1.1211857E-08    8.0935487E+06
   -1.59   500.000   -8.495E+00    7.8470269E+06    1.2609287E-08    9.2822633E-09    7.8470269E+06    1.1897676E-08    7.8470271E+06
   -1.58   500.000   -8.508E+00    7.6088660E+06    1.3003040E-08    9.6374844E-09    7.6088660E+06    1.2429251E-08    7.6088663E+06
   -1.57   500.000   -8.520E+00    7.3919882E+06    1.3244529E-08    9.8456096E-09    7.3919882E+06    1.2763188E-08    7.3919887E+06
   -1.56   500.000   -8.532E+00    7.2086454E+06    1.3324062E-08    9.8896318E-09    7.2086454E+06    1.2873918E-08    7.2086460E+06
   -1.55   500.000   -8.543E+00    7.0692761E+06    1.3248898E-08    9.7694527E-09    7.0692761E+06    1.2763378E-08    7.0692768E+06
   -1.54   500.000   -8.554E+00    6.9816843E+06    1.3044921E-08    9.5043617E-09    6.9816843E+06    1.2464790E-08    6.9816851E+06
   -1.53   500.000   -8.564E+00    6.9505533E+06    1.2753635E-08    9.1305507E-09    6.9505533E+06    1.2038606E-08    6.9505544E+06
   -1.52   500.000   -8.574E+00    6.9773686E+06    1.2424982E-08    8.6941906E-09    6.9773686E+06    1.1561403E-08    6.9773699E+06
   -1.51   500.000   -8.584E+00    7.0608247E+06    1.2107980E-08    8.2419985E-09    7.0608247E+06    1.1110679E-08    7.0608264E+06
   -1.50   500.000   -8.595E+00    7.1976782E+06    1.1841594E-08    7.8117272E-09    7.1976782E+06    1.0749362E-08    7.1976803E+06
   -1.49   500.000   -8.605E+00    7.3838106E+06    1.1647821E-08    7.4246738E-09    7.3838106E+06    1.0513399E-08    7.3838133E+06
   -1.48   500.000   -8.615E+00    7.6151125E+06    1.1528107E-08    7.0815840E-09    7.6151125E+06    1.0404714E-08    7.6151159E+06
   -1.47   500.000   -8.626E+00    7.8878221E+06    1.1463479E-08    6.7626539E-09    7.8878221E+06    1.0390752E-08    7.8878264E+06
   -1.46   500.000   -8.637E+00    8.1981701E+06    1.1418359E-08    6.4317686E-09    8.1981701E+06    1.0410899E-08    8.1981755E+06
   -1.45   500.000   -8.649E+00    8.5414943E+06    1.1347595E-08    6.0445049E-09    8.5414943E+06    1.0388980E-08    8.5415011E+06
   -1.44   500.000   -8.661E+00    8.9111953E+06    1.1205688E-08    5.5586198E-09    8.9111953E+06    1.0249753E-08    8.9112039E+06
   -1.43   500.000   -8.673E+00    9.2979036E+06    1.0956447E-08    4.9448829E-09    9.2979036E+06    9.9358694E-09    9.2979145E+06
   -1.42   500.000   -8.686E+00    9.6890663E+06    1.0580769E-08    4.1956147E-09    9.6890663E+06    9.4211083E-09    9.6890800E+06
   -1.41   500.000   -8.700E+00    1.0069014E+07    1.0080541E-08    3.3286321E-09    1.0069014E+07    8.7162517E-09    1.0069031E+07
   -1.40   500.000   -8.715E+00    1.0419556E+07    9.4777942E-09    2.3855463E-09    1.0419556E+07    7.8660834E-09    1.0419577E+07
   -1.39   500.000   -8.730E+00    1.0721224E+07    8.8098297E-09    1.4250674E-09    1.0721224E+07    6.9387517E-09    1.0721252E+07
   -1.38   500.000   -8.745E+00    1.0955262E+07    8.1222659E-09    5.1338087E-10    1.0955262E+07    6.0110310E-09    1.0955297E+07
   -1.37   500.000   -8.761E+00    1.1106243E+07    7.4622071E-09   -2.8579106E-10    1.1106243E+07    5.1538812E-09    1.1106287E+07
   -1.36   500.000   -8.777E+00    1.1164867E+07    6.8730928E-09   -9.1921301E-10    1.1164867E+07    4.4219803E-09    1.1164923E+07
   -1.35   500.000   -8.794E+00    1.1130183E+07    6.3917199E-09   -1.3489768E-09    1.1130183E+07    3.8491025E-09    1.1130253E+07
   -1.34   500.000   -8.810E+00    1.1010468E+07    6.0470582E-09   -1.5539522E-09    1.1010468E+07    3.4491505E-09    1.1010556E+07
   -1.33   500.000   -8.826E+00    1.0822367E+07    5.8601209E-09   -1.5284508E-09    1.0822367E+07    3.2210634E-09    1.0822478E+07
   -1.32   500.000   -8.842E+00    1.0588415E+07    5.8442592E-09   -1.2791294E-09    1.0588415E+07    3.1551576E-09    1.0588554E+07
   -1.31   500.000   -8.858E+00    1.0333607E+07    6.0055638E-09   -8.2123015E-10    1.0333607E+07    3.2387388E-09    1.0333783E+07
   -1.30   500.000   -8.873E+00    1.0081896E+07    6.3432873E-09   -1.7509427E-10    1.0081896E+07    3.4596887E-09    1.0082118E+07
   -1.29   500.000   -8.888E+00    9.8533687E+06    6.8502508E-09    6.3637935E-10    9.8533687E+06    3.8076706E-09    9.8536475E+06
   -1.28   500.000   -8.902E+00    9.6625227E+06    7.5131198E-09    1.5889461E-09    9.6625227E+06    4.2732378E-09    9.6628739E+06
   -1.27   500.000   -8.916E+00    9.5176933E+06    8.3123736E-09    2.6567907E-09    9.5176933E+06    4.8454089E-09    9.5181353E+06
   -1.26   500.000   -8.930E+00    9.4213609E+06    9.2218479E-09    3.8110557E-09    9.4213609E+06    5.5083588E-09    9.4219170E+06
   -1.25   500.000   -8.943E+00    9.3708922E+06    1.0207945E-08    5.0176662E-09    9.3708922E+06    6.2380152E-09    9.3715915E+06
   -1.24   500.000   -8.956E+00    9.3592394E+06    1.1228941E-08    6.2353777E-09    9.3592394E+06    6.9995943E-09    9.3601181E+06
   -1.23   500.000   -8.969E+00    9.3753341E+06    1.2235178E-08    7.4152451E-09    9.3753341E+06    7.7473204E-09    9.3764371E+06
   -1.22   500.000   -8.981E+00    9.4043077E+06    1.3171108E-08    8.5026433E-09    9.4043077E+06    8.4274340E-09    9.4056905E+06
   -1.21   500.000   -8.994E+00    9.4280349E+06    1.3979885E-08    9.4423647E-09    9.4280349E+06    8.9848416E-09    9.4297659E+06
   -1.20   500.000   -9.007E+00    9.4265643E+06    1.4610347E-08    1.0186198E-08    9.4265643E+06    9.3724305E-09    9.4287270E+06
   -1.19   500.000   -9.019E+00    9.3806414E+06    1.5025031E-08    1.0701126E-08    9.3806414E+06    9.5606044E-09    9.3833368E+06
   -1.18   500.000   -9.031E+00    9.2749273E+06    1.5206879E-08    1.0975530E-08    9.2749273E+06    9.5437986E-09    9.2782769E+06
   -1.17   500.000   -9.044E+00    9.1010234E+06    1.5162329E-08    1.1021147E-08    9.1010234E+06    9.3413303E-09    9.1051705E+06
   -1.16   500.000   -9.056E+00    8.8593327E+06    1.4919622E-08    1.0870034E-08    8.8593327E+06    8.9919591E-09    8.8644439E+06
   -1.15   500.000   -9.068E+00    8.5591679E+06    1.4522946E-08    1.0567658E-08    8.5591679E+06    8.5440836E-09    8.5654320E+06
   -1.14   500.000   -9.079E+00    8.2171298E+06    1.4024379E-08    1.0164514E-08    8.2171298E+06    8.0452045E-09    8.2247546E+06
   -1.13   500.000   -9.091E+00    7.8543249E+06    1.3475985E-08    9.7087148E-09    7.8543249E+06    7.5341915E-09    7.8635298E+06
   -1.12   500.000   -9.102E+00    7.4932482E+06    1.2923743E-08    9.2410432E-09    7.4932482E+06    7.0381745E-09    7.5042514E+06
   -1.11   500.000   -9.112E+00    7.1550830E+06    1.2404015E-08    8.7927446E-09    7.1550830E+06    6.5736427E-09    7.1680829E+06
   -1.10   500.000   -9.122E+00    6.8578779E+06    1.1942458E-08    8.3855030E-09    6.8578779E+06    6.1498404E-09    6.8730293E+06
   -1.09   500.000   -9.132E+00    6.6157197E+06    1.1554938E-08    8.0328279E-09    6.6157197E+06    5.7723747E-09    6.6331062E+06
   -1.08   500.000   -9.142E+00    6.4387533E+06    1.1249910E-08    7.7422126E-09    6.4387533E+06    5.4457776E-09    6.4583611E+06
   -1.07   500.000   -9.152E+00    6.3337422E+06    1.1031655E-08    7.5175787E-09    6.3337422E+06    5.1748001E-09    6.3554419E+06
   -1.06   500.000   -9.161E+00    6.3047764E+06    1.0903508E-08    7.3614946E-09    6.3047764E+06    4.9648230E-09    6.3283201E+06
   -1.05   500.000   -9.170E+00    6.3537250E+06    1.0869984E-08    7.2765488E-09    6.3537250E+06    4.8218297E-09    6.3787663E+06
   -1.04   500.000   -9.180E+00    6.4801405E+06    1.0936872E-08    7.2653303E-09    6.4801405E+06    4.7521540E-09    6.5062780E+06
   -1.03   500.000   -9.189E+00    6.6805716E+06    1.1108998E-08    7.3288648E-09    6.6805716E+06    4.7620078E-09    6.7074101E+06
   -1.02   500.000   -9.199E+00    6.9475580E+06    1.1386310E-08    7.4639851E-09    6.9475580E+06    4.8567494E-09    6.9747788E+06
   -1.01   500.000   -9.208E+00    7.2688199E+06    1.1759768E-08    7.6606727E-09    7.2688199E+06    5.0399120E-09    7.2962441E+06
   -1.00   500.000   -9.218E+00    7.6271806E+06    1.2208787E-08    7.9006170E-09    7.6271806E+06    5.3121005E-09    7.6548154E+06
   -0.99   500.000   -9.229E+00    8.0015683E+06    1.2701589E-08    8.1579623E-09    8.0015683E+06    5.6699441E-09    8.0296299E+06
   -0.98   500.000   -9.239E+00    8.3690979E+06    1.3198907E-08    8.4025473E-09    8.3690979E+06    6.1053864E-09    8.3980113E+06
   -0.97   500.000   -9.250E+00    8.7078643E+06    1.3660381E-08    8.6051145E-09    8.7078643E+06    6.6056928E-09    8.7382442E+06
   -0.96   500.000   -9.262E+00    8.9997896E+06    1.4052082E-08    8.7432873E-09    8.9997896E+06    7.1545729E-09    9.0324068E+06
   -0.95   500.000   -9.273E+00    9.2327633E+06    1.4353217E-08    8.8068137E-09    9.2327633E+06    7.7346226E-09    9.2685001E+06
   -0.94   500.000   -9.285E+00    9.4014587E+06    1.4560257E-08    8.8007307E-09    9.4014587E+06    8.3308400E-09    9.4412525E+06
   -0.93   500.000   -9.297E+00    9.5066014E+06    1.4687429E-08    8.7455686E-09    9.5066014E+06    8.9343971E-09    9.5513746E+06
   -0.92   500.000   -9.309E+00    9.5529946E+06    1.4763392E-08    8.6743240E-09    9.5529946E+06    9.5454162E-09    9.6035674E+06
   -0.91   500.000   -9.321E+00    9.5470611E+06    1.4824845E-08    8.6265519E-09    9.5470611E+06    1.0173472E-08    9.6040491E+06
   -0.90   500.000   -9.333E+00    9.4948069E+06    1.4908414E-08    8.6405234E-09    9.4948069E+06    1.0834954E-08    9.5585077E+06
   -0.89   500.000   -9.345E+00    9.4008459E+06    1.5042506E-08    8.7448756E-09    9.4008459E+06    1.1547169E-08    9.4711323E+06
   -0.88   500.000   -9.357E+00    9.2685882E+06    1.5240676E-08    8.9514200E-09    9.2685882E+06    1.2319938E-08    9.3448304E+06
   -0.87   500.000   -9.369E+00    9.1011930E+06    1.5497717E-08    9.2506852E-09    9.1011930E+06    1.3146461E-08    9.1822386E+06
   -0.86   500.000   -9.381E+00    8.9026795E+06    1.5789238E-08    9.6113563E-09    8.9026795E+06    1.3996133E-08    8.9869138E+06
   -0.85   500.000   -9.392E+00    8.6787122E+06    1.6075058E-08    9.9841044E-09    8.6787122E+06    1.4812406E-08    8.7642037E+06
   -0.84   500.000   -9.404E+00    8.4368577E+06    1.6306186E-08    1.0309441E-08    8.4368577E+06    1.5518004E-08    8.5215698E+06
   -0.83   500.000   -9.415E+00    8.1863314E+06    1.6434248E-08    1.0528215E-08    8.1863314E+06    1.6027546E-08    8.2683603E+06
   -0.82   500.000   -9.426E+00    7.9373381E+06    1.6421267E-08    1.0592439E-08    7.9373381E+06    1.6264592E-08    8.0151265E+06
   -0.81   500.000   -9.437E+00    7.7001032E+06    1.6247066E-08    1.0473655E-08    7.7001032E+06    1.6177832E-08    7.7725896E+06
   -0.80   500.000   -9.448E+00    7.4836996E+06    1.5912034E-08    1.0166593E-08    7.4836996E+06    1.5751179E-08    7.5503847E+06
   -0.79   500.000   -9.458E+00    7.2948440E+06    1.5434558E-08    9.6873460E-09    7.2948440E+06    1.5005071E-08    7.3557796E+06
   -0.78   500.000   -9.469E+00    7.1369166E+06    1.4844461E-08    9.0672391E-09    7.1369166E+06    1.3990013E-08    7.1926400E+06
   -0.77   500.000   -9.479E+00    7.0094872E+06    1.4175133E-08    8.3448925E-09    7.0094872E+06    1.2776047E-08    7.0609301E+06
   -0.76   500.000   -9.489E+00    6.9085553E+06    1.3457047E-08    7.5591021E-09    6.9085553E+06    1.1442169E-08    6.9569523E+06
   -0.75   500.000   -9.499E+00    6.8275651E+06    1.2714159E-08    6.7441976E-09    6.8275651E+06    1.0068082E-08    6.8743756E+06
   -0.74   500.000   -9.509E+00    6.7590756E+06    1.1963278E-08    5.9281614E-09    6.7590756E+06    8.7285000E-09    6.8059277E+06
   -0.73   500.000   -9.518E+00    6.6967963E+06    1.1215482E-08    5.1327637E-09    6.6967963E+06    7.4889631E-09    6.7454487E+06
   -0.72   500.000   -9.528E+00    6.6375374E+06    1.0478460E-08    4.3746103E-09    6.6375374E+06    6.4021662E-09    6.6898543E+06
   -0.71   500.000   -9.537E+00    6.5825373E+06    9.7589142E-09    3.6662184E-09    6.5825373E+06    5.5046265E-09    6.6404634E+06
   -0.70   500.000   -9.546E+00    6.5376830E+06    9.0644877E-09    3.0167088E-09    6.5376830E+06    4.8143423E-09    6.6032077E+06
   -0.69   500.000   -9.555E+00    6.5124081E+06    8.4048965E-09    2.4321447E-09    6.5124081E+06    4.3302920E-09    6.5875046E+06
   -0.68   500.000   -9.564E+00    6.5174560E+06    7.7920361E-09    1.9158002E-09    6.5174560E+06    4.0342280E-09    6.6039843E+06
   -0.67   500.000   -9.573E+00    6.5620632E+06    7.2390017E-09    1.4686587E-09    6.5620632E+06    3.8945714E-09    6.6616271E+06
   -0.66   500.000   -9.582E+00    6.6512834E+06    6.7582143E-09    1.0902668E-09    6.6512834E+06    3.8717153E-09    6.7650436E+06
   -0.65   500.000   -9.591E+00    6.7840952E+06    6.3591437E-09    7.7981575E-10    6.7840952E+06    3.9238386E-09    6.9125538E+06
   -0.64   500.000   -9.600E+00    6.9526985E+06    6.0462921E-09    5.3709176E-10    6.9526985E+06    4.0123588E-09    7.0954881E+06
   -0.63   500.000   -9.610E+00    7.1431242E+06    5.8180568E-09    3.6287308E-10    7.1431242E+06    4.1062738E-09    7.2988537E+06
   -0.62   500.000   -9.619E+00    7.3370227E+06    5.6668580E-09    2.5851993E-10    7.3370227E+06    4.1848301E-09    7.5032394E+06
   -0.61   500.000   -9.629E+00    7.5142703E+06    5.5806156E-09    2.2488982E-10    7.5142703E+06    4.2382331E-09    7.6875852E+06
   -0.60   500.000   -9.639E+00    7.6558390E+06    5.5453809E-09    2.6114022E-10    7.6558390E+06    4.2665106E-09    7.8322282E+06
   -0.59   500.000   -9.649E+00    7.7462845E+06    5.5486657E-09    3.6415892E-10    7.7462845E+06    4.2770175E-09    7.9215273E+06
   -0.58   500.000   -9.659E+00    7.7753132E+06    5.5827455E-09    5.2906282E-10    7.7753132E+06    4.2813002E-09    7.9454833E+06
   -0.57   500.000   -9.669E+00    7.7382322E+06    5.6470288E-09    7.5052643E-10    7.7382322E+06    4.2920161E-09    7.9001396E+06
   -0.56   500.000   -9.679E+00    7.6355307E+06    5.7486941E-09    1.0241039E-09    7.6355307E+06    4.3204403E-09    7.7870305E+06
   -0.55   500.000   -9.688E+00    7.4721466E+06    5.9013199E-09    1.3466914E-09    7.4721466E+06    4.3748835E-09    7.6122761E+06
   -0.54   500.000   -9.698E+00    7.2569183E+06    6.1219938E-09    1.7159001E-09    7.2569183E+06    4.4601759E-09    7.3858728E+06
   -0.53   500.000   -9.708E+00    7.0023439E+06    6.4279105E-09    2.1288784E-09    7.0023439E+06    4.5781708E-09    7.1213397E+06
   -0.52   500.000   -9.717E+00    6.7243346E+06    6.8333996E-09    2.5813992E-09    6.7243346E+06    4.7289559E-09    6.8354152E+06
   -0.51   500.000   -9.726E+00    6.4414683E+06    7.3477398E-09    3.0676391E-09    6.4414683E+06    4.9122160E-09    6.5473044E+06
   -0.50   500.000   -9.735E+00    6.1734510E+06    7.9735169E-09    3.5804260E-09    6.1734510E+06    5.1281308E-09    6.2771633E+06
# T(K) = 600.00   Npoints =     901   V(cm^3) =  3.483E-22
   -9.50   600.000    1.594E+01    5.9309611E+05    1.6930854E-08    1.6656983E-08    5.9309611E+05    4.3815633E-08    5.9309611E+05
   -9.49   600.000    1.593E+01    6.3770248E+05    1.7199601E-08    1.6903139E-08    6.3770248E+05    4.6394416E-08    6.3770248E+05
   -9.48   600.000    1.593E+01    6.8456962E+05    1.7393812E-08    1.7074797E-08    6.8456962E+05    4.8874185E-08    6.8456962E+05
   -9.47   600.000    1.593E+01    7.3304911E+05    1.7516180E-08    1.7175415E-08    7.3304911E+05    5.1173240E-08    7.3304911E+05
   -9.46   600.000    1.592E+01    7.8227164E+05    1.7561567E-08    1.7200639E-08    7.8227164E+05    5.3186144E-08    7.8227164E+05
   -9.45   600.000    1.592E+01    8.3118574E+05    1.7517890E-08    1.7139139E-08    8.3118574E+05    5.4791643E-08    8.3118574E+05
   -9.44   600.000    1.591E+01    8.7863270E+05    1.7369019E-08    1.6975438E-08    8.7863270E+05    5.5866406E-08    8.7863270E+05
   -9.43   600.000    1.591E+01    9.2345162E+05    1.7098999E-08    1.6694060E-08    9.2345162E+05    5.6302418E-08    9.2345162E+05
   -9.42   600.000    1.590E+01    9.6459956E+05    1.6696571E-08    1.6283992E-08    9.6459956E+05    5.6024422E-08    9.6459956E+05
   -9.41   600.000    1.590E+01    1.0012675E+06    1.6158877E-08    1.5742343E-08    1.0012675E+06    5.5003378E-08    1.0012675E+06
   -9.40   600.000    1.589E+01    1.0329756E+06    1.5493457E-08    1.5076319E-08    1.0329756E+06    5.3262652E-08    1.0329756E+06
   -9.39   600.000    1.589E+01    1.0596387E+06    1.4718124E-08    1.4303123E-08    1.0596387E+06    5.0875588E-08    1.0596387E+06
   -9.38   600.000    1.588E+01    1.0816028E+06    1.3858933E-08    1.3447952E-08    1.0816028E+06    4.7955440E-08    1.0816028E+06
   -9.37   600.000    1.588E+01    1.0996538E+06    1.2946879E-08    1.2540764E-08    1.0996538E+06    4.4640477E-08    1.0996538E+06
   -9.36   600.000    1.587E+01    1.1149994E+06    1.2014191E-08    1.1612633E-08    1.1149994E+06    4.1077852E-08    1.1149994E+06
   -9.35   600.000    1.586E+01    1.1292168E+06    1.1090985E-08    1.0692457E-08    1.1292168E+06    3.7409341E-08    1.1292168E+06
   -9.34   600.000    1.586E+01    1.1441570E+06    1.0202753E-08    9.8045002E-09    1.1441570E+06    3.3760868E-08    1.1441570E+06
   -9.33   600.000    1.585E+01    1.1618011E+06    9.3688639E-09    8.9669479E-09    1.1618011E+06    3.0236365E-08    1.1618011E+06
   -9.32   600.000    1.585E+01    1.1840760E+06    8.6020380E-09    8.1914220E-09    1.1840760E+06    2.6915488E-08    1.1840760E+06
   -9.31   600.000    1.584E+01    1.2126533E+06    7.9086234E-09    7.4833205E-09    1.2126533E+06    2.3854226E-08    1.2126533E+06
   -9.30   600.000    1.583E+01    1.2487615E+06    7.2895060E-09    6.8427952E-09    1.2487615E+06    2.1087363E-08    1.2487615E+06
   -9.29   600.000    1.583E+01    1.2930415E+06    6.7414759E-09    6.2662006E-09    1.2930415E+06    1.8631933E-08    1.2930415E+06
   -9.28   600.000    1.582E+01    1.3454684E+06    6.2588699E-09    5.7478285E-09    1.3454684E+06    1.6491045E-08    1.3454684E+06
   -9.27   600.000    1.582E+01    1.4053454E+06    5.8352795E-09    5.2817094E-09    1.4053454E+06    1.4657641E-08    1.4053454E+06
   -9.26   600.000    1.581E+01    1.4713614E+06    5.4650852E-09    4.8632309E-09    1.4713614E+06    1.3117910E-08    1.4713614E+06
   -9.25   600.000    1.580E+01    1.5416977E+06    5.1445890E-09    4.4903269E-09    1.5416977E+06    1.1854165E-08    1.5416977E+06
   -9.24   600.000    1.579E+01    1.6141667E+06    4.8725950E-09    4.1640646E-09    1.6141667E+06    1.0847124E-08    1.6141667E+06
   -9.23   600.000    1.578E+01    1.6863710E+06    4.6504154E-09    3.8885886E-09    1.6863710E+06    1.0077613E-08    1.6863710E+06
   -9.22   600.000    1.578E+01    1.7558802E+06    4.4814285E-09    3.6705282E-09    1.7558802E+06    9.5277958E-09    1.7558802E+06
   -9.21   600.000    1.577E+01    1.8204231E+06    4.3704141E-09    3.5180910E-09    1.8204231E+06    9.1820440E-09    1.8204231E+06
   -9.20   600.000    1.576E+01    1.8780912E+06    4.3229133E-09    3.4401084E-09    1.8780912E+06    9.0275758E-09    1.8780912E+06
   -9.19   600.000    1.575E+01    1.9275379E+06    4.3447954E-09    3.4452534E-09    1.9275379E+06    9.0549038E-09    1.9275379E+06
   -9.18   600.000    1.574E+01    1.9681445E+06    4.4420916E-09    3.5415544E-09    1.9681445E+06    9.2581037E-09    1.9681445E+06
   -9.17   600.000    1.572E+01    2.0001219E+06    4.6210395E-09    3.7362093E-09    2.0001219E+06    9.6348714E-09    2.0001219E+06
   -9.16   600.000    1.571E+01    2.0245206E+06    4.8881952E-09    4.0356067E-09    2.0245206E+06    1.0186340E-08    2.0245206E+06
   -9.15   600.000    1.570E+01    2.0431400E+06    5.2504562E-09    4.4454084E-09    2.0431400E+06    1.0916645E-08    2.0431400E+06
   -9.14   600.000    1.569E+01    2.0583457E+06    5.7148626E-09    4.9705371E-09    2.0583457E+06    1.1832227E-08    2.0583457E+06
   -9.13   600.000    1.568E+01    2.0728232E+06    6.2881085E-09    5.6149483E-09    2.0728232E+06    1.2940887E-08    2.0728232E+06
   -9.12   600.000    1.566E+01    2.0893003E+06    6.9757534E-09    6.3811173E-09    2.0893003E+06    1.4250566E-08    2.0893003E+06
   -9.11   600.000    1.565E+01    2.1102709E+06    7.7811701E-09    7.2692304E-09    2.1102709E+06    1.5767848E-08    2.1102709E+06
   -9.10   600.000    1.563E+01    2.1377487E+06    8.7043001E-09    8.2761268E-09    2.1377487E+06    1.7496173E-08    2.1377487E+06
   -9.09   600.000    1.562E+01    2.1730737E+06    9.7403054E-09    9.3940805E-09    2.1730737E+06    1.9433843E-08    2.1730737E+06
   -9.08   600.000    1.560E+01    2.2167901E+06    1.0878242E-08    1.0609558E-08    2.2167901E+06    2.1571928E-08    2.2167901E+06
   -9.07   600.000    1.559E+01    2.2686082E+06    1.2099922E-08    1.1902132E-08    2.2686082E+06    2.3892270E-08    2.2686082E+06
   -9.06   600.000    1.557E+01    2.3274491E+06    1.3379191E-08    1.3243796E-08    2.3274491E+06    2.6365817E-08    2.3274491E+06
   -9.05   600.000    1.555E+01    2.3915621E+06    1.4681899E-08    1.4598951E-08    2.3915621E+06    2.8951552E-08    2.3915621E+06
   -9.04   600.000    1.553E+01    2.4586893E+06    1.5966887E-08    1.5925393E-08    2.4586893E+06    3.1596240E-08    2.4586893E+06
   -9.03   600.000    1.551E+01    2.5262555E+06    1.7188187E-08    1.7176504E-08    2.5262555E+06    3.4235234E-08    2.5262555E+06
   -9.02   600.000    1.548E+01    2.5915634E+06    1.8298516E-08    1.8304724E-08    2.5915634E+06    3.6794494E-08    2.5915634E+06
   -9.01   600.000    1.546E+01    2.6519867E+06    1.9253762E-08    1.9266026E-08    2.6519867E+06    3.9193924E-08    2.6519867E+06
   -9.00   600.000    1.544E+01    2.7051648E+06    2.0017854E-08    2.0024779E-08    2.7051648E+06    4.1351971E-08    2.7051648E+06
   -8.99   600.000    1.541E+01    2.7491974E+06    2.0567125E-08    2.0558125E-08    2.7491974E+06    4.3191276E-08    2.7491974E+06
   -8.98   600.000    1.538E+01    2.7828306E+06    2.0893256E-08    2.0858914E-08    2.7828306E+06    4.4644889E-08    2.7828306E+06
   -8.97   600.000    1.536E+01    2.8056072E+06    2.1004103E-08    2.0936532E-08    2.8056072E+06    4.5662345E-08    2.8056072E+06
   -8.96   600.000    1.533E+01    2.8179455E+06    2.0922221E-08    2.0815364E-08    2.8179455E+06    4.6214691E-08    2.8179455E+06
   -8.95   600.000    1.530E+01    2.8211106E+06    2.0681404E-08    2.0531222E-08    2.8211106E+06    4.6297529E-08    2.8211106E+06
   -8.94   600.000    1.527E+01    2.8170648E+06    2.0321959E-08    2.0126474E-08    2.8170648E+06    4.5931339E-08    2.8170648E+06
   -8.93   600.000    1.524E+01    2.8082125E+06    1.9885655E-08    1.9644808E-08    2.8082125E+06    4.5158809E-08    2.8082125E+06
   -8.92   600.000    1.521E+01    2.7970835E+06    1.9411167E-08    1.9126514E-08    2.7970835E+06    4.4039471E-08    2.7970835E+06
   -8.91   600.000    1.518E+01    2.7860120E+06    1.8930591E-08    1.8604867E-08    2.7860120E+06    4.2642557E-08    2.7860120E+06
   -8.90   600.000    1.515E+01    2.7768664E+06    1.8467268E-08    1.8103890E-08    2.7768664E+06    4.1039340E-08    2.7768664E+06
   -8.89   600.000    1.512E+01    2.7708618E+06    1.8034853E-08    1.7637423E-08    2.7708618E+06    3.9296239E-08    2.7708618E+06
   -8.88   600.000    1.509E+01    2.7684637E+06    1.7637405E-08    1.7209266E-08    2.7684637E+06    3.7469733E-08    2.7684637E+06
   -8.87   600.000    1.506E+01    2.7693742E+06    1.7270237E-08    1.6814121E-08    2.7693742E+06    3.5603581E-08    2.7693742E+06
   -8.86   600.000    1.503E+01    2.7725835E+06    1.6921363E-08    1.6439145E-08    2.7725835E+06    3.3728407E-08    2.7725835E+06
   -8.85   600.000    1.500E+01    2.7764791E+06    1.6573485E-08    1.6066038E-08    2.7764791E+06    3.1863257E-08    2.7764791E+06
   -8.84   600.000    1.497E+01    2.7790098E+06    1.6206483E-08    1.5673638E-08    2.7790098E+06    3.0018581E-08    2.7790098E+06
   -8.83   600.000    1.494E+01    2.7779060E+06    1.5800355E-08    1.5240928E-08    2.7779060E+06    2.8199975E-08    2.7779060E+06
   -8.82   600.000    1.492E+01    2.7709479E+06    1.5338317E-08    1.4750204E-08    2.7709479E+06    2.6412028E-08    2.7709479E+06
   -8.81   600.000    1.489E+01    2.7562548E+06    1.4809664E-08    1.4189965E-08    2.7562548E+06    2.4661696E-08    2.7562548E+06
   -8.80   600.000    1.486E+01    2.7325539E+06    1.4211840E-08    1.3556991E-08    2.7325539E+06    2.2960658E-08    2.7325539E+06
   -8.79   600.000    1.484E+01    2.6993827E+06    1.3551276E-08    1.2857184E-08    2.6993827E+06    2.1326295E-08    2.6993827E+06
   -8.78   600.000    1.481E+01    2.6571889E+06    1.2842804E-08    1.2104954E-08    2.6571889E+06    1.9781142E-08    2.6571889E+06
   -8.77   600.000    1.479E+01    2.6073099E+06    1.2107753E-08    1.1321321E-08    2.6073099E+06    1.8350963E-08    2.6073099E+06
   -8.76   600.000    1.477E+01    2.5518370E+06    1.1371155E-08    1.0531114E-08    2.5518370E+06    1.7061865E-08    2.5518370E+06
   -8.75   600.000    1.474E+01    2.4933860E+06    1.0658624E-08    9.7598921E-09    2.4933860E+06    1.5937076E-08    2.4933860E+06
   -8.74   600.000    1.472E+01    2.4348048E+06    9.9934542E-09    9.0310977E-09    2.4348048E+06    1.4993999E-08    2.4348048E+06
   -8.73   600.000    1.470E+01    2.3788506E+06    9.3943419E-09    8.3638713E-09    2.3788506E+06    1.4242051E-08    2.3788506E+06
   -8.72   600.000    1.468E+01    2.3278728E+06    8.8739285E-09    7.7716964E-09    2.3278728E+06    1.3681562E-08    2.3278728E+06
   -8.71   600.000    1.467E+01    2.2835363E+06    8.4381813E-09    7.2618773E-09    2.2835363E+06    1.3303782E-08    2.2835363E+06
   -8.70   600.000    1.465E+01    2.2466194E+06    8.0865054E-09    6.8357153E-09    2.2466194E+06    1.3091855E-08    2.2466194E+06
   -8.69   600.000    1.463E+01    2.2169147E+06    7.8124243E-09    6.4891912E-09    2.2169147E+06    1.3022518E-08    2.2169147E+06
   -8.68   600.000    1.462E+01    2.1932549E+06    7.6046636E-09    6.2139636E-09    2.1932549E+06    1.3068273E-08    2.1932549E+06
   -8.67   600.000    1.460E+01    2.1736691E+06    7.4484912E-09    5.9985217E-09    2.1736691E+06    1.3199724E-08    2.1736691E+06
   -8.66   600.000    1.459E+01    2.1556627E+06    7.3271966E-09    5.8293788E-09    2.1556627E+06    1.3387803E-08    2.1556627E+06
   -8.65   600.000    1.458E+01    2.1365898E+06    7.2236038E-09    5.6922296E-09    2.1365898E+06    1.3605604E-08    2.1365898E+06
   -8.64   600.000    1.456E+01    2.1140663E+06    7.1215129E-09    5.5730217E-09    2.1140663E+06    1.3829579E-08    2.1140663E+06
   -8.63   600.000    1.455E+01    2.0863576E+06    7.0069572E-09    5.4588982E-09    2.0863576E+06    1.4039988E-08    2.0863576E+06
   -8.62   600.000    1.454E+01    2.0526640E+06    6.8691543E-09    5.3389645E-09    2.0526640E+06    1.4220610E-08    2.0526640E+06
   -8.61   600.000    1.453E+01    2.0132465E+06    6.7010478E-09    5.2048244E-09    2.0132465E+06    1.4357951E-08    2.0132465E+06
   -8.60   600.000    1.451E+01    1.9693641E+06    6.4993884E-09    5.0508434E-09    1.9693641E+06    1.4440281E-08    1.9693641E+06
   -8.59   600.000    1.450E+01    1.9230375E+06    6.2643874E-09    4.8741345E-09    1.9230375E+06    1.4456917E-08    1.9230375E+06
   -8.58   600.000    1.449E+01    1.8766955E+06    5.9990634E-09    4.6743144E-09    1.8766955E+06    1.4398075E-08    1.8766955E+06
   -8.57   600.000    1.448E+01    1.8327790E+06    5.7084571E-09    4.4531183E-09    1.8327790E+06    1.4255439E-08    1.8327790E+06
   -8.56   600.000    1.448E+01    1.7933798E+06    5.3988787E-09    4.2139672E-09    1.7933798E+06    1.4023309E-08    1.7933798E+06
   -8.55   600.000    1.447E+01    1.7599693E+06    5.0772868E-09    3.9615444E-09    1.7599693E+06    1.3699923E-08    1.7599693E+06
   -8.54   600.000    1.446E+01    1.7332441E+06    4.7508063E-09    3.7013836E-09    1.7332441E+06    1.3288422E-08    1.7332441E+06
   -8.53   600.000    1.445E+01    1.7130896E+06    4.4263298E-09    3.4394328E-09    1.7130896E+06    1.2796977E-08    1.7130896E+06
   -8.52   600.000    1.444E+01    1.6986493E+06    4.1101340E-09    3.1815635E-09    1.6986493E+06    1.2237898E-08    1.6986493E+06
   -8.51   600.000    1.443E+01    1.6884791E+06    3.8074844E-09    2.9330376E-09    1.6884791E+06    1.1625909E-08    1.6884791E+06
   -8.50   600.000    1.442E+01    1.6807674E+06    3.5222654E-09    2.6979964E-09    1.6807674E+06    1.0976075E-08    1.6807674E+06
   -8.49   600.000    1.442E+01    1.6735955E+06    3.2567186E-09    2.4790762E-09    1.6735955E+06    1.0301994E-08    1.6735955E+06
   -8.48   600.000    1.441E+01    1.6652107E+06    3.0113809E-09    2.2772482E-09    1.6652107E+06    9.6147348E-09    1.6652107E+06
   -8.47   600.000    1.440E+01    1.6542735E+06    2.7852789E-09    2.0919373E-09    1.6542735E+06    8.9227004E-09    1.6542735E+06
   -8.46   600.000    1.439E+01    1.6400434E+06    2.5763671E-09    1.9214031E-09    1.6400434E+06    8.2322903E-09    1.6400434E+06
   -8.45   600.000    1.439E+01    1.6224722E+06    2.3821284E-09    1.7633002E-09    1.6224722E+06    7.5489846E-09    1.6224722E+06
   -8.44   600.000    1.438E+01    1.6021945E+06    2.2002061E-09    1.6152856E-09    1.6021945E+06    6.8783977E-09    1.6021945E+06
   -8.43   600.000    1.437E+01    1.5804237E+06    2.0289279E-09    1.4755398E-09    1.5804237E+06    6.2269412E-09    1.5804237E+06
   -8.42   600.000    1.436E+01    1.5587854E+06    1.8676200E-09    1.3430988E-09    1.5587854E+06    5.6019304E-09    1.5587854E+06
   -8.41   600.000    1.436E+01    1.5391239E+06    1.7166753E-09    1.2179604E-09    1.5391239E+06    5.0111802E-09    1.5391239E+06
   -8.40   600.000    1.435E+01    1.5233178E+06    1.5774103E-09    1.1009842E-09    1.5233178E+06    4.4622896E-09    1.5233178E+06
   -8.39   600.000    1.434E+01    1.5131253E+06    1.4517885E-09    9.9365574E-10    1.5131253E+06    3.9618610E-09    1.5131254E+06
   -8.38   600.000    1.433E+01    1.5100616E+06    1.3421018E-09    8.9779556E-10    1.5100616E+06    3.5148628E-09    1.5100617E+06
   -8.37   600.000    1.433E+01    1.5153010E+06    1.2506812E-09    8.1528545E-10    1.5153010E+06    3.1242457E-09    1.5153010E+06
   -8.36   600.000    1.432E+01    1.5295926E+06    1.1796719E-09    7.4785637E-10    1.5295926E+06    2.7908331E-09    1.5295926E+06
   -8.35   600.000    1.431E+01    1.5531860E+06    1.1308756E-09    6.9695293E-10    1.5531860E+06    2.5134355E-09    1.5531861E+06
   -8.34   600.000    1.430E+01    1.5857776E+06    1.1056440E-09    6.6366561E-10    1.5857776E+06    2.2891172E-09    1.5857777E+06
   -8.33   600.000    1.429E+01    1.6264953E+06    1.1048014E-09    6.4870886E-10    1.6264953E+06    2.1135436E-09    1.6264954E+06
   -8.32   600.000    1.428E+01    1.6739454E+06    1.1285860E-09    6.5242102E-10    1.6739454E+06    1.9813614E-09    1.6739455E+06
   -8.31   600.000    1.427E+01    1.7263334E+06    1.1766088E-09    6.7476736E-10    1.7263334E+06    1.8865833E-09    1.7263334E+06
   -8.30   600.000    1.426E+01    1.7816516E+06    1.2478413E-09    7.1533690E-10    1.7816516E+06    1.8229636E-09    1.7816517E+06
   -8.29   600.000    1.425E+01    1.8379072E+06    1.3406424E-09    7.7333334E-10    1.8379072E+06    1.7843552E-09    1.8379072E+06
   -8.28   600.000    1.424E+01    1.8933437E+06    1.4528297E-09    8.4756879E-10    1.8933437E+06    1.7650347E-09    1.8933438E+06
   -8.27   600.000    1.422E+01    1.9466097E+06    1.5817938E-09    9.3647529E-10    1.9466097E+06    1.7599821E-09    1.9466098E+06
   -8.26   600.000    1.421E+01    1.9968364E+06    1.7246487E-09    1.0381529E-09    1.9968364E+06    1.7651028E-09    1.9968366E+06
   -8.25   600.000    1.420E+01    2.0436156E+06    1.8784133E-09    1.1504718E-09    2.0436156E+06    1.7773922E-09    2.0436158E+06
   -8.24   600.000    1.418E+01    2.0868988E+06    2.0402192E-09    1.2712373E-09    2.0868988E+06    1.7950493E-09    2.0868990E+06
   -8.23   600.000    1.417E+01    2.1268628E+06    2.2075345E-09    1.3984072E-09    2.1268628E+06    1.8175485E-09    2.1268631E+06
   -8.22   600.000    1.416E+01    2.1637893E+06    2.3783791E-09    1.5303254E-09    2.1637893E+06    1.8456715E-09    2.1637896E+06
   -8.21   600.000    1.414E+01    2.1979918E+06    2.5514846E-09    1.6659100E-09    2.1979918E+06    1.8814825E-09    2.1979922E+06
   -8.20   600.000    1.413E+01    2.2297945E+06    2.7263384E-09    1.8047264E-09    2.2297945E+06    1.9282227E-09    2.2297949E+06
   -8.19   600.000    1.411E+01    2.2595400E+06    2.9030576E-09    1.9468906E-09    2.2595400E+06    1.9901019E-09    2.2595405E+06
   -8.18   600.000    1.410E+01    2.2875930E+06    3.0820705E-09    2.0927873E-09    2.2875930E+06    2.0719820E-09    2.2875936E+06
   -8.17   600.000    1.408E+01    2.3143114E+06    3.2636351E-09    2.2426445E-09    2.3143114E+06    2.1789705E-09    2.3143122E+06
   -8.16   600.000    1.406E+01    2.3399784E+06    3.4472744E-09    2.3960449E-09    2.3399784E+06    2.3159611E-09    2.3399793E+06
   -8.15   600.000    1.405E+01    2.3647125E+06    3.6312445E-09    2.5514854E-09    2.3647125E+06    2.4871740E-09    2.3647136E+06
   -8.14   600.000    1.403E+01    2.3883916E+06    3.8121628E-09    2.7060865E-09    2.3883916E+06    2.6957597E-09    2.3883929E+06
   -8.13   600.000    1.402E+01    2.4106262E+06    3.9849083E-09    2.8555350E-09    2.4106262E+06    2.9435400E-09    2.4106278E+06
   -8.12   600.000    1.400E+01    2.4308059E+06    4.1428681E-09    2.9943008E-09    2.4308059E+06    3.2309624E-09    2.4308078E+06
   -8.11   600.000    1.398E+01    2.4482174E+06    4.2785457E-09    3.1161296E-09    2.4482174E+06    3.5573266E-09    2.4482198E+06
   -8.10   600.000    1.397E+01    2.4622089E+06    4.3844652E-09    3.2147565E-09    2.4622089E+06    3.9212878E-09    2.4622118E+06
   -8.09   600.000    1.395E+01    2.4723545E+06    4.4542300E-09    3.2847350E-09    2.4723545E+06    4.3215599E-09    2.4723579E+06
   -8.08   600.000    1.393E+01    2.4785743E+06    4.4835303E-09    3.3222353E-09    2.4785743E+06    4.7576525E-09    2.4785785E+06
   -8.07   600.000    1.391E+01    2.4811778E+06    4.4708835E-09    3.3256496E-09    2.4811778E+06    5.2304211E-09    2.4811828E+06
   -8.06   600.000    1.390E+01    2.4808223E+06    4.4179441E-09    3.2958811E-09    2.4808223E+06    5.7422280E-09    2.4808285E+06
   -8.05   600.000    1.388E+01    2.4784069E+06    4.3293312E-09    3.2362636E-09    2.4784069E+06    6.2966145E-09    2.4784144E+06
   -8.04   600.000    1.386E+01    2.4749362E+06    4.2120455E-09    3.1521562E-09    2.4749362E+06    6.8975415E-09    2.4749452E+06
   -8.03   600.000    1.384E+01    2.4713924E+06    4.0746457E-09    3.0503309E-09    2.4713924E+06    7.5484178E-09    2.4714034E+06
   -8.02   600.000    1.382E+01    2.4686409E+06    3.9263876E-09    2.9383066E-09    2.4686409E+06    8.2512275E-09    2.4686542E+06
   -8.01   600.000    1.380E+01    2.4673787E+06    3.7764903E-09    2.8237585E-09    2.4673787E+06    9.0060547E-09    2.4673949E+06
   -8.00   600.000    1.379E+01    2.4681207E+06    3.6336147E-09    2.7140784E-09    2.4681207E+06    9.8111846E-09    2.4681404E+06
   -7.99   600.000    1.377E+01    2.4712131E+06    3.5055503E-09    2.6160902E-09    2.4712131E+06    1.0663763E-08    2.4712369E+06
   -7.98   600.000    1.375E+01    2.4768606E+06    3.3990393E-09    2.5358698E-09    2.4768606E+06    1.1560799E-08    2.4768895E+06
   -7.97   600.000    1.373E+01    2.4851590E+06    3.3196431E-09    2.4785980E-09    2.4851590E+06    1.2500141E-08    2.4851940E+06
   -7.96   600.000    1.371E+01    2.4961235E+06    3.2715731E-09    2.4483826E-09    2.4961235E+06    1.3481048E-08    2.4961661E+06
   -7.95   600.000    1.369E+01    2.5097069E+06    3.2574537E-09    2.4480200E-09    2.5097069E+06    1.4504059E-08    2.5097585E+06
   -7.94   600.000    1.367E+01    2.5258016E+06    3.2780440E-09    2.4787175E-09    2.5258016E+06    1.5570078E-08    2.5258642E+06
   -7.93   600.000    1.365E+01    2.5442283E+06    3.3319920E-09    2.5398348E-09    2.5442283E+06    1.6678836E-08    2.5443042E+06
   -7.92   600.000    1.363E+01    2.5647157E+06    3.4157212E-09    2.6287302E-09    2.5647157E+06    1.7827079E-08    2.5648078E+06
   -7.91   600.000    1.360E+01    2.5868814E+06    3.5235411E-09    2.7407961E-09    2.5868814E+06    1.9006913E-08    2.5869931E+06
   -7.90   600.000    1.358E+01    2.6102243E+06    3.6480358E-09    2.8697389E-09    2.6102243E+06    2.0204697E-08    2.6103597E+06
   -7.89   600.000    1.356E+01    2.6341290E+06    3.7807234E-09    3.0081126E-09    2.6341290E+06    2.1400689E-08    2.6342932E+06
   -7.88   600.000    1.354E+01    2.6578828E+06    3.9129118E-09    3.1480540E-09    2.6578828E+06    2.2569492E-08    2.6580817E+06
   -7.87   600.000    1.351E+01    2.6806935E+06    4.0366231E-09    3.2821173E-09    2.6806935E+06    2.3681189E-08    2.6809345E+06
   -7.86   600.000    1.349E+01    2.7017063E+06    4.1454357E-09    3.4040726E-09    2.7017063E+06    2.4703016E-08    2.7019982E+06
   -7.85   600.000    1.347E+01    2.7200181E+06    4.2351044E-09    3.5095368E-09    2.7200181E+06    2.5601481E-08    2.7203717E+06
   -7.84   600.000    1.344E+01    2.7346983E+06    4.3038665E-09    3.5963342E-09    2.7346983E+06    2.6344880E-08    2.7351262E+06
   -7.83   600.000    1.342E+01    2.7448261E+06    4.3524003E-09    3.6645409E-09    2.7448261E+06    2.6906154E-08    2.7453438E+06
   -7.82   600.000    1.339E+01    2.7495524E+06    4.3834670E-09    3.7162228E-09    2.7495524E+06    2.7265876E-08    2.7501783E+06
   -7.81   600.000    1.336E+01    2.7481820E+06    4.4013116E-09    3.7549298E-09    2.7481820E+06    2.7414928E-08    2.7489381E+06
   -7.80   600.000    1.334E+01    2.7402619E+06    4.4109331E-09    3.7850493E-09    2.7402619E+06    2.7356305E-08    2.7411745E+06
   -7.79   600.000    1.331E+01    2.7256537E+06    4.4173433E-09    3.8111411E-09    2.7256537E+06    2.7105498E-08    2.7267540E+06
   -7.78   600.000    1.328E+01    2.7045670E+06    4.4249291E-09    3.8373688E-09    2.7045670E+06    2.6689241E-08    2.7058917E+06
   -7.77   600.000    1.325E+01    2.6775406E+06    4.4370044E-09    3.8671163E-09    2.6775406E+06    2.6142797E-08    2.6791332E+06
   -7.76   600.000    1.322E+01    2.6453744E+06    4.4555863E-09    3.9028121E-09    2.6453744E+06    2.5506327E-08    2.6472853E+06
   -7.75   600.000    1.319E+01    2.6090282E+06    4.4813775E-09    3.9459286E-09    2.6090282E+06    2.4821058E-08    2.6113159E+06
   -7.74   600.000    1.315E+01    2.5695169E+06    4.5138965E-09    3.9970776E-09    2.5695169E+06    2.4125849E-08    2.5722485E+06
   -7.73   600.000    1.312E+01    2.5278328E+06    4.5516913E-09    4.0561276E-09    2.5278328E+06    2.3454563E-08    2.5310844E+06
   -7.72   600.000    1.308E+01    2.4849172E+06    4.5925949E-09    4.1223019E-09    2.4849172E+06    2.2834380E-08    2.4887736E+06
   -7.71   600.000    1.305E+01    2.4416872E+06    4.6340137E-09    4.1942720E-09    2.4416872E+06    2.2284991E-08    2.4462414E+06
   -7.70   600.000    1.301E+01    2.3991041E+06    4.6732534E-09    4.2702836E-09    2.3991041E+06    2.1818548E-08    2.4044561E+06
   -7.69   600.000    1.297E+01    2.3582532E+06    4.7078689E-09    4.3483440E-09    2.3582532E+06    2.1440150E-08    2.3645072E+06
   -7.68   600.000    1.293E+01    2.3203967E+06    4.7359853E-09    4.4264527E-09    2.3203967E+06    2.1148653E-08    2.3276582E+06
   -7.67   600.000    1.289E+01    2.2869696E+06    4.7565051E-09    4.5028093E-09    2.2869696E+06    2.0937575E-08    2.2953404E+06
   -7.66   600.000    1.285E+01    2.2595017E+06    4.7691203E-09    4.5759144E-09    2.2595017E+06    2.0795897E-08    2.2690745E+06
   -7.65   600.000    1.281E+01    2.2394760E+06    4.7740939E-09    4.6445045E-09    2.2394760E+06    2.0708666E-08    2.2503277E+06
   -7.64   600.000    1.276E+01    2.2281477E+06    4.7718569E-09    4.7073300E-09    2.2281477E+06    2.0657443E-08    2.2403334E+06
   -7.63   600.000    1.272E+01    2.2263670E+06    4.7625396E-09    4.7628603E-09    2.2263670E+06    2.0620791E-08    2.2399132E+06
   -7.62   600.000    1.267E+01    2.2344417E+06    4.7456069E-09    4.8090541E-09    2.2344417E+06    2.0575093E-08    2.2493419E+06
   -7.61   600.000    1.262E+01    2.2520715E+06    4.7197505E-09    4.8433363E-09    2.2520715E+06    2.0495959E-08    2.2682831E+06
   -7.60   600.000    1.257E+01    2.2783641E+06    4.6831272E-09    4.8628667E-09    2.2783641E+06    2.0360329E-08    2.2958077E+06
   -7.59   600.000    1.252E+01    2.3119269E+06    4.6339192E-09    4.8650901E-09    2.3119269E+06    2.0149109E-08    2.3304891E+06
   -7.58   600.000    1.247E+01    2.3510122E+06    4.5710885E-09    4.8484516E-09    2.3510122E+06    1.9849905E-08    2.3705495E+06
   -7.57   600.000    1.242E+01    2.3936834E+06    4.4951246E-09    4.8130968E-09    2.3936834E+06    1.9459282E-08    2.4140292E+06
   -7.56   600.000    1.237E+01    2.4379744E+06    4.4085830E-09    4.7613672E-09    2.4379744E+06    1.8983977E-08    2.4589463E+06
   -7.55   600.000    1.232E+01    2.4820184E+06    4.3162722E-09    4.6979608E-09    2.4820184E+06    1.8440747E-08    2.5034255E+06
   -7.54   600.000    1.226E+01    2.5241359E+06    4.2250433E-09    4.6297130E-09    2.5241359E+06    1.7854820E-08    2.5457861E+06
   -7.53   600.000    1.221E+01    2.5628831E+06    4.1432329E-09    4.5650476E-09    2.5628831E+06    1.7257238E-08    2.5845893E+06
   -7.52   600.000    1.216E+01    2.5970689E+06    4.0798721E-09    4.5131994E-09    2.5970689E+06    1.6681581E-08    2.6186533E+06
   -7.51   600.000    1.210E+01    2.6257488E+06    4.0437951E-09    4.4833326E-09    2.6257488E+06    1.6160573E-08    2.6470466E+06
   -7.50   600.000    1.205E+01    2.6482085E+06    4.0427704E-09    4.4836680E-09    2.6482085E+06    1.5723004E-08    2.6690702E+06
   -7.49   600.000    1.199E+01    2.6639435E+06    4.0827491E-09    4.5207084E-09    2.6639435E+06    1.5391270E-08    2.6842357E+06
   -7.48   600.000    1.194E+01    2.6726400E+06    4.1672958E-09    4.5986274E-09    2.6726400E+06    1.5179672E-08    2.6922462E+06
   -7.47   600.000    1.188E+01    2.6741572E+06    4.2972346E-09    4.7188601E-09    2.6741572E+06    1.5093537E-08    2.6929772E+06
   -7.46   600.000    1.183E+01    2.6685078E+06    4.4705149E-09    4.8799076E-09    2.6685078E+06    1.5129121E-08    2.6864569E+06
   -7.45   600.000    1.177E+01    2.6558348E+06    4.6822699E-09    5.0773458E-09    2.6558348E+06    1.5274213E-08    2.6728429E+06
   -7.44   600.000    1.171E+01    2.6363850E+06    4.9250210E-09    5.3040036E-09    2.6363850E+06    1.5509315E-08    2.6523952E+06
   -7.43   600.000    1.166E+01    2.6104832E+06    5.1889830E-09    5.5502766E-09    2.6104832E+06    1.5809257E-08    2.6254515E+06
   -7.42   600.000    1.160E+01    2.5785164E+06    5.4624490E-09    5.8045561E-09    2.5785164E+06    1.6145104E-08    2.5924110E+06
   -7.41   600.000    1.155E+01    2.5409303E+06    5.7322735E-09    6.0537797E-09    2.5409303E+06    1.6486262E-08    2.5537325E+06
   -7.40   600.000    1.149E+01    2.4982371E+06    5.9845115E-09    6.2841415E-09    2.4982371E+06    1.6802681E-08    2.5099416E+06
   -7.39   600.000    1.144E+01    2.4510245E+06    6.2052744E-09    6.4819995E-09    2.4510245E+06    1.7067100E-08    2.4616401E+06
   -7.38   600.000    1.138E+01    2.3999551E+06    6.3818249E-09    6.6349869E-09    2.3999551E+06    1.7257223E-08    2.4095051E+06
   -7.37   600.000    1.133E+01    2.3457485E+06    6.5038426E-09    6.7332538E-09    2.3457485E+06    1.7357657E-08    2.3542699E+06
   -7.36   600.000    1.127E+01    2.2891430E+06    6.5646930E-09    6.7706798E-09    2.2891430E+06    1.7361358E-08    2.2966859E+06
   -7.35   600.000    1.122E+01    2.2308447E+06    6.5624506E-09    6.7458282E-09    2.2308447E+06    1.7270284E-08    2.2374696E+06
   -7.34   600.000    1.116E+01    2.1714708E+06    6.5004271E-09    6.6624123E-09    2.1714708E+06    1.7095020E-08    2.1772463E+06
   -7.33   600.000    1.111E+01    2.1115006E+06    6.3870372E-09    6.5291251E-09    2.1115006E+06    1.6853306E-08    2.1165007E+06
   -7.32   600.000    1.106E+01    2.0512418E+06    6.2349925E-09    6.3588308E-09    2.0512418E+06    1.6567645E-08    2.0555429E+06
   -7.31   600.000    1.101E+01    1.9908183E+06    6.0599763E-09    6.1672689E-09    1.9908183E+06    1.6262398E-08    1.9944966E+06
   -7.30   600.000    1.096E+01    1.9301841E+06    5.8790686E-09    5.9715272E-09    1.9301841E+06    1.5960908E-08    1.9333132E+06
   -7.29   600.000    1.091E+01    1.8691605E+06    5.7092120E-09    5.7885574E-09    1.8691605E+06    1.5683138E-08    1.8718100E+06
   -7.28   600.000    1.086E+01    1.8074931E+06    5.5659343E-09    5.6339321E-09    1.8074931E+06    1.5444184E-08    1.8097274E+06
   -7.27   600.000    1.082E+01    1.7449190E+06    5.4624216E-09    5.5209259E-09    1.7449190E+06    1.5253754E-08    1.7467965E+06
   -7.26   600.000    1.077E+01    1.6812321E+06    5.4089111E-09    5.4598862E-09    1.6812321E+06    1.5116496E-08    1.6828049E+06
   -7.25   600.000    1.073E+01    1.6163360E+06    5.4122920E-09    5.4577913E-09    1.6163360E+06    1.5032913E-08    1.6176501E+06
   -7.24   600.000    1.069E+01    1.5502747E+06    5.4757965E-09    5.5178877E-09    1.5502747E+06    1.5000494E-08    1.5513702E+06
   -7.23   600.000    1.065E+01    1.4832374E+06    5.5987085E-09    5.6393523E-09    1.4832374E+06    1.5014721E-08    1.4841490E+06
   -7.22   600.000    1.061E+01    1.4155391E+06    5.7761063E-09    5.8170085E-09    1.4155391E+06    1.5069685E-08    1.4162965E+06
   -7.21   600.000    1.057E+01    1.3475811E+06    5.9987343E-09    6.0412011E-09    1.3475811E+06    1.5158144E-08    1.3482095E+06
   -7.20   600.000    1.053E+01    1.2798019E+06    6.2531475E-09    6.2979738E-09    1.2798019E+06    1.5271056E-08    1.2803227E+06
   -7.19   600.000    1.050E+01    1.2126289E+06    6.5222599E-09    6.5696774E-09    1.2126289E+06    1.5396785E-08    1.2130602E+06
   -7.18   600.000    1.047E+01    1.1464390E+06    6.7863646E-09    6.8360633E-09    1.1464390E+06    1.5520335E-08    1.1467960E+06
   -7.17   600.000    1.043E+01    1.0815362E+06    7.0245950E-09    7.0758185E-09    1.0815362E+06    1.5623064E-08    1.0818315E+06
   -7.16   600.000    1.040E+01    1.0181480E+06    7.2166972E-09    7.2683969E-09    1.0181480E+06    1.5683264E-08    1.0183923E+06
   -7.15   600.000    1.037E+01    9.5643917E+05    7.3449085E-09    7.3959290E-09    9.5643917E+05    1.5677822E-08    9.5664118E+05
   -7.14   600.000    1.035E+01    8.9653702E+05    7.3956961E-09    7.4449621E-09    8.9653702E+05    1.5584902E-08    8.9670414E+05
   -7.13   600.000    1.032E+01    8.3856167E+05    7.3611122E-09    7.4077869E-09    8.3856167E+05    1.5387207E-08    8.3870002E+05
   -7.12   600.000    1.029E+01    7.8265310E+05    7.2395557E-09    7.2831523E-09    7.8265310E+05    1.5075173E-08    7.8276776E+05
   -7.11   600.000    1.027E+01    7.2898959E+05    7.0358080E-09    7.0762458E-09    7.2898959E+05    1.4649295E-08    7.2908478E+05
   -7.10   600.000    1.024E+01    6.7779387E+05    6.7603143E-09    6.7979252E-09    6.7779387E+05    1.4121000E-08    6.7787312E+05
   -7.09   600.000    1.022E+01    6.2932715E+05    6.4278217E-09    6.4633197E-09    6.2932715E+05    1.3511804E-08    6.2939340E+05
   -7.08   600.000    1.019E+01    5.8387359E+05    6.0556065E-09    6.0900353E-09    5.8387359E+05    1.2850985E-08    5.8392930E+05
   -7.07   600.000    1.017E+01    5.4172032E+05    5.6616021E-09    5.6962771E-09    5.4172032E+05    1.2172351E-08    5.4176753E+05
   -7.06   600.000    1.015E+01    5.0313805E+05    5.2627421E-09    5.2991964E-09    5.0313805E+05    1.1510856E-08    5.0317853E+05
   -7.05   600.000    1.012E+01    4.6836690E+05    4.8737509E-09    4.9136911E-09    4.6836690E+05    1.0899734E-08    4.6840214E+05
   -7.04   600.000    1.010E+01    4.3760921E+05    4.5064937E-09    4.5517665E-09    4.3760921E+05    1.0368587E-08    4.3764049E+05
   -7.03   600.000    1.007E+01    4.1102890E+05    4.1698665E-09    4.2224325E-09    4.1102890E+05    9.9425476E-09    4.1105735E+05
   -7.02   600.000    1.005E+01    3.8875487E+05    3.8701051E-09    3.9320156E-09    3.8875487E+05    9.6423788E-09    3.8878149E+05
   -7.01   600.000    1.002E+01    3.7088446E+05    3.6113443E-09    3.6847153E-09    3.7088446E+05    9.4852290E-09    3.7091016E+05
   -7.00   600.000    9.995E+00    3.5748363E+05    3.3962534E-09    3.4832320E-09    3.5748363E+05    9.4856880E-09    3.5750926E+05
   -6.99   600.000    9.966E+00    3.4858152E+05    3.2266088E-09    3.3293295E-09    3.4858152E+05    9.6568382E-09    3.4860786E+05
   -6.98   600.000    9.934E+00    3.4415886E+05    3.1037186E-09    3.2242472E-09    3.4415886E+05    1.0011073E-08    3.4418666E+05
   -6.97   600.000    9.901E+00    3.4413217E+05    3.0286709E-09    3.1689378E-09    3.4413217E+05    1.0560551E-08    3.4416214E+05
   -6.96   600.000    9.864E+00    3.4833678E+05    3.0024219E-09    3.1641488E-09    3.4833678E+05    1.1317245E-08    3.4836959E+05
   -6.95   600.000    9.824E+00    3.5651304E+05    3.0257695E-09    3.2103928E-09    3.5651304E+05    1.2292585E-08    3.5654934E+05
   -6.94   600.000    9.781E+00    3.6829980E+05    3.0992535E-09    3.3078523E-09    3.6829980E+05    1.3496702E-08    3.6834016E+05
   -6.93   600.000    9.733E+00    3.8323799E+05    3.2230151E-09    3.4562483E-09    3.8323799E+05    1.4937286E-08    3.8328292E+05
   -6.92   600.000    9.682E+00    4.0078534E+05    3.3966212E-09    3.6546798E-09    4.0078534E+05    1.6618014E-08    4.0083524E+05
   -6.91   600.000    9.626E+00    4.2034138E+05    3.6188432E-09    3.9014208E-09    4.2034138E+05    1.8536540E-08    4.2039654E+05
   -6.90   600.000    9.565E+00    4.4127982E+05    3.8873798E-09    4.1936625E-09    4.4127982E+05    2.0682098E-08    4.4134040E+05
   -6.89   600.000    9.499E+00    4.6298472E+05    4.1985240E-09    4.5272008E-09    4.6298472E+05    2.3032858E-08    4.6305075E+05
   -6.88   600.000    9.427E+00    4.8488652E+05    4.5468114E-09    4.8961037E-09    4.8488652E+05    2.5553401E-08    4.8495791E+05
   -6.87   600.000    9.351E+00    5.0649459E+05    4.9247212E-09    5.2924307E-09    5.0649459E+05    2.8192853E-08    5.0657113E+05
   -6.86   600.000    9.268E+00    5.2742383E+05    5.3225358E-09    5.7061073E-09    5.2742383E+05    3.0884372E-08    5.2750522E+05
   -6.85   600.000    9.180E+00    5.4741390E+05    5.7284747E-09    6.1250725E-09    5.4741390E+05    3.3546712E-08    5.4749979E+05
   -6.84   600.000    9.086E+00    5.6634042E+05    6.1291984E-09    6.5357922E-09    5.6634042E+05    3.6088407E-08    5.6643047E+05
   -6.83   600.000    8.987E+00    5.8421807E+05    6.5107120E-09    6.9241698E-09    5.8421807E+05    3.8414623E-08    5.8431193E+05
   -6.82   600.000    8.883E+00    6.0119554E+05    6.8596110E-09    7.2767952E-09    6.0119554E+05    4.0436112E-08    6.0129290E+05
   -6.81   600.000    8.774E+00    6.1754268E+05    7.1645103E-09    7.5823746E-09    6.1754268E+05    4.2078971E-08    6.1764326E+05
   -6.80   600.000    8.660E+00    6.3362975E+05    7.4174270E-09    7.8331089E-09    6.3362975E+05    4.3293432E-08    6.3373327E+05
   -6.79   600.000    8.543E+00    6.4989886E+05    7.6148682E-09    8.0257731E-09    6.4989886E+05    4.4059875E-08    6.5000503E+05
   -6.78   600.000    8.422E+00    6.6682801E+05    7.7584108E-09    8.1622820E-09    6.6682801E+05    4.4390703E-08    6.6693647E+05
   -6.77   600.000    8.298E+00    6.8488888E+05    7.8546507E-09    8.2496198E-09    6.8488888E+05    4.4327613E-08    6.8499915E+05
   -6.76   600.000    8.172E+00    7.0450073E+05    7.9144982E-09    8.2991111E-09    7.0450073E+05    4.3934789E-08    7.0461216E+05
   -6.75   600.000    8.045E+00    7.2598479E+05    7.9519005E-09    8.3251153E-09    7.2598479E+05    4.3289373E-08    7.2609655E+05
   -6.74   600.000    7.915E+00    7.4952480E+05    7.9821486E-09    8.3433059E-09    7.4952480E+05    4.2471029E-08    7.4963588E+05
   -6.73   600.000    7.785E+00    7.7514035E+05    8.0199960E-09    8.3687636E-09    7.7514035E+05    4.1552414E-08    7.7524959E+05
   -6.72   600.000    7.654E+00    8.0267843E+05    8.0778583E-09    8.4141578E-09    8.0267843E+05    4.0592017E-08    8.0278458E+05
   -6.71   600.000    7.522E+00    8.3182602E+05    8.1643900E-09    8.4883140E-09    8.3182602E+05    3.9630256E-08    8.3192784E+05
   -6.70   600.000    7.390E+00    8.6214204E+05    8.2837150E-09    8.5954427E-09    8.6214204E+05    3.8689116E-08    8.6223840E+05
   -6.69   600.000    7.258E+00    8.9310314E+05    8.4354989E-09    8.7352208E-09    8.9310314E+05    3.7774950E-08    8.9319308E+05
   -6.68   600.000    7.126E+00    9.2415438E+05    8.6158916E-09    8.9037498E-09    9.2415438E+05    3.6883636E-08    9.2423721E+05
   -6.67   600.000    6.994E+00    9.5475578E+05    8.8191531E-09    9.0952034E-09    9.5475578E+05    3.6006846E-08    9.5483106E+05
   -6.66   600.000    6.864E+00    9.8441738E+05    9.0395684E-09    9.3037717E-09    9.8441738E+05    3.5138082E-08    9.8448497E+05
   -6.65   600.000    6.734E+00    1.0127202E+06    9.2731470E-09    9.5253914E-09    1.0127202E+06    3.4277180E-08    1.0127802E+06
   -6.64   600.000    6.607E+00    1.0393243E+06    9.5186326E-09    9.7587867E-09    1.0393243E+06    3.3432385E-08    1.0393770E+06
   -6.63   600.000    6.481E+00    1.0639706E+06    9.7775406E-09    1.0005532E-08    1.0639706E+06    3.2619661E-08    1.0640164E+06
   -6.62   600.000    6.359E+00    1.0864811E+06    1.0053206E-08    1.0269119E-08    1.0864811E+06    3.1859545E-08    1.0865207E+06
   -6.61   600.000    6.239E+00    1.1067654E+06    1.0349088E-08    1.0553262E-08    1.1067654E+06    3.1172403E-08    1.1067994E+06
   -6.60   600.000    6.122E+00    1.1248321E+06    1.0666725E-08    1.0859850E-08    1.1248321E+06    3.0573192E-08    1.1248611E+06
   -6.59   600.000    6.008E+00    1.1408033E+06    1.1003781E-08    1.1186968E-08    1.1408033E+06    3.0066843E-08    1.1408278E+06
   -6.58   600.000    5.898E+00    1.1549244E+06    1.1352566E-08    1.1527391E-08    1.1549244E+06    2.9645138E-08    1.1549451E+06
   -6.57   600.000    5.792E+00    1.1675629E+06    1.1699310E-08    1.1867814E-08    1.1675629E+06    2.9285626E-08    1.1675802E+06
   -6.56   600.000    5.689E+00    1.1791892E+06    1.2024399E-08    1.2189052E-08    1.1791892E+06    2.8952808E-08    1.1792037E+06
   -6.55   600.000    5.590E+00    1.1903419E+06    1.2303668E-08    1.2467285E-08    1.1903419E+06    2.8601516E-08    1.1903541E+06
   -6.54   600.000    5.495E+00    1.2015804E+06    1.2510714E-08    1.2676333E-08    1.2015804E+06    2.8182134E-08    1.2015905E+06
   -6.53   600.000    5.403E+00    1.2134334E+06    1.2620005E-08    1.2790740E-08    1.2134334E+06    2.7646992E-08    1.2134419E+06
   -6.52   600.000    5.316E+00    1.2263506E+06    1.2610342E-08    1.2789217E-08    1.2263506E+06    2.6956965E-08    1.2263576E+06
   -6.51   600.000    5.232E+00    1.2406621E+06    1.2468018E-08    1.2657801E-08    1.2406621E+06    2.6087121E-08    1.2406679E+06
   -6.50   600.000    5.152E+00    1.2565503E+06    1.2189005E-08    1.2392054E-08    1.2565503E+06    2.5030276E-08    1.2565551E+06
   -6.49   600.000    5.077E+00    1.2740349E+06    1.1779629E-08    1.1997771E-08    1.2740349E+06    2.3797720E-08    1.2740389E+06
   -6.48   600.000    5.005E+00    1.2929767E+06    1.1255584E-08    1.1490017E-08    1.2929767E+06    2.2416992E-08    1.2929800E+06
   -6.47   600.000    4.938E+00    1.3131023E+06    1.0639522E-08    1.0890768E-08    1.3131023E+06    2.0927307E-08    1.3131050E+06
   -6.46   600.000    4.874E+00    1.3340533E+06    9.9578429E-09    1.0225736E-08    1.3340533E+06    1.9373761E-08    1.3340556E+06
   -6.45   600.000    4.814E+00    1.3554558E+06    9.2374110E-09    9.5211308E-09    1.3554558E+06    1.7801599E-08    1.3554577E+06
   -6.44   600.000    4.758E+00    1.3770011E+06    8.5028253E-09    8.8009650E-09    1.3770011E+06    1.6251590E-08    1.3770027E+06
   -6.43   600.000    4.706E+00    1.3985192E+06    7.7746229E-09    8.0852892E-09    1.3985192E+06    1.4757086E-08    1.3985205E+06
   -6.42   600.000    4.658E+00    1.4200261E+06    7.0684756E-09    7.3894089E-09    1.4200261E+06    1.3342821E-08    1.4200271E+06
   -6.41   600.000    4.612E+00    1.4417285E+06    6.3952162E-09    6.7239208E-09    1.4417285E+06    1.2025114E-08    1.4417294E+06
   -6.40   600.000    4.570E+00    1.4639825E+06    5.7614129E-09    6.0952873E-09    1.4639825E+06    1.0812968E-08    1.4639832E+06
   -6.39   600.000    4.531E+00    1.4872129E+06    5.1702150E-09    5.5066743E-09    1.4872129E+06    9.7095464E-09    1.4872135E+06
   -6.38   600.000    4.494E+00    1.5118157E+06    4.6222625E-09    4.9588505E-09    1.5118157E+06    8.7136862E-09    1.5118162E+06
   -6.37   600.000    4.460E+00    1.5380673E+06    4.1165412E-09    4.4510349E-09    1.5380673E+06    7.8212097E-09    1.5380677E+06
   -6.36   600.000    4.428E+00    1.5660618E+06    3.6511288E-09    3.9816377E-09    1.5660618E+06    7.0259872E-09    1.5660622E+06
   -6.35   600.000    4.398E+00    1.5956881E+06    3.2238086E-09    3.5488716E-09    1.5956881E+06    6.3207514E-09    1.5956883E+06
   -6.34   600.000    4.369E+00    1.6266441E+06    2.8325352E-09    3.1512099E-09    1.6266441E+06    5.6977126E-09    1.6266443E+06
   -6.33   600.000    4.343E+00    1.6584793E+06    2.4757326E-09    2.7876694E-09    1.6584793E+06    5.1490196E-09    1.6584795E+06
   -6.32   600.000    4.317E+00    1.6906504E+06    2.1524187E-09    2.4579085E-09    1.6906504E+06    4.6671089E-09    1.6906506E+06
   -6.31   600.000    4.293E+00    1.7225801E+06    1.8621674E-09    2.1621559E-09    1.7225801E+06    4.2449656E-09    1.7225803E+06
   -6.30   600.000    4.270E+00    1.7537142E+06    1.6049495E-09    1.9010156E-09    1.7537142E+06    3.8763182E-09    1.7537143E+06
   -6.29   600.000    4.248E+00    1.7835771E+06    1.3809095E-09    1.6752134E-09    1.7835771E+06    3.5557699E-09    1.7835772E+06
   -6.28   600.000    4.227E+00    1.8118295E+06    1.1901429E-09    1.4853512E-09    1.8118295E+06    3.2788667E-09    1.8118296E+06
   -6.27   600.000    4.206E+00    1.8383252E+06    1.0325242E-09    1.3317164E-09    1.8383252E+06    3.0420911E-09    1.8383253E+06
   -6.26   600.000    4.186E+00    1.8631619E+06    9.0760855E-10    1.2141659E-09    1.8631619E+06    2.8427781E-09    1.8631619E+06
   -6.25   600.000    4.167E+00    1.8867117E+06    8.1460506E-10    1.1320750E-09    1.8867117E+06    2.6789563E-09    1.8867118E+06
   -6.24   600.000    4.148E+00    1.9096183E+06    7.5239926E-10    1.0843266E-09    1.9096183E+06    2.5491354E-09    1.9096183E+06
   -6.23   600.000    4.130E+00    1.9327467E+06    7.1959703E-10    1.0693162E-09    1.9327467E+06    2.4520669E-09    1.9327467E+06
   -6.22   600.000    4.112E+00    1.9570843E+06    7.1456792E-10    1.0849574E-09    1.9570843E+06    2.3865109E-09    1.9570843E+06
   -6.21   600.000    4.094E+00    1.9836014E+06    7.3547788E-10    1.1286893E-09    1.9836014E+06    2.3510353E-09    1.9836015E+06
   -6.20   600.000    4.076E+00    2.0130949E+06    7.8031270E-10    1.1975005E-09    2.0130949E+06    2.3438649E-09    2.0130949E+06
   -6.19   600.000    4.058E+00    2.0460456E+06    8.4690140E-10    1.2879885E-09    2.0460456E+06    2.3627930E-09    2.0460456E+06
   -6.18   600.000    4.041E+00    2.0825249E+06    9.3294917E-10    1.3964720E-09    2.0825249E+06    2.4051617E-09    2.0825249E+06
   -6.17   600.000    4.023E+00    2.1221727E+06    1.0360847E-09    1.5191579E-09    2.1221727E+06    2.4679131E-09    2.1221727E+06
   -6.16   600.000    4.005E+00    2.1642568E+06    1.1539167E-09    1.6523485E-09    2.1642568E+06    2.5477051E-09    2.1642568E+06
   -6.15   600.000    3.987E+00    2.2077973E+06    1.2840840E-09    1.7926479E-09    2.2077973E+06    2.6410738E-09    2.2077973E+06
   -6.14   600.000    3.968E+00    2.2517261E+06    1.4242747E-09    1.9371176E-09    2.2517261E+06    2.7446121E-09    2.2517261E+06
   -6.13   600.000    3.949E+00    2.2950378E+06    1.5721934E-09    2.0833293E-09    2.2950378E+06    2.8551291E-09    2.2950378E+06
   -6.12   600.000    3.930E+00    2.3368981E+06    1.7254673E-09    2.2292892E-09    2.3368981E+06    2.9697668E-09    2.3368982E+06
   -6.11   600.000    3.910E+00    2.3766851E+06    1.8815100E-09    2.3732487E-09    2.3766851E+06    3.0860705E-09    2.3766851E+06
   -6.10   600.000    3.890E+00    2.4139652E+06    2.0373864E-09    2.5134597E-09    2.4139652E+06    3.2020391E-09    2.4139652E+06
   -6.09   600.000    3.869E+00    2.4484245E+06    2.1897410E-09    2.6479595E-09    2.4484245E+06    3.3161972E-09    2.4484245E+06
   -6.08   600.000    3.848E+00    2.4797863E+06    2.3348441E-09    2.7744680E-09    2.4797863E+06    3.4277233E-09    2.4797863E+06
   -6.07   600.000    3.827E+00    2.5077498E+06    2.4687833E-09    2.8904449E-09    2.5077498E+06    3.5366393E-09    2.5077498E+06
   -6.06   600.000    3.806E+00    2.5319692E+06    2.5877829E-09    2.9933050E-09    2.5319692E+06    3.6440269E-09    2.5319692E+06
   -6.05   600.000    3.784E+00    2.5520791E+06    2.6885984E-09    3.0807406E-09    2.5520791E+06    3.7522077E-09    2.5520791E+06
   -6.04   600.000    3.762E+00    2.5677578E+06    2.7689084E-09    3.1510759E-09    2.5677578E+06    3.8648247E-09    2.5677578E+06
   -6.03   600.000    3.741E+00    2.5788158E+06    2.8276342E-09    3.2035802E-09    2.5788158E+06    3.9867878E-09    2.5788158E+06
   -6.02   600.000    3.719E+00    2.5852934E+06    2.8651417E-09    3.2386892E-09    2.5852934E+06    4.1240852E-09    2.5852934E+06
   -6.01   600.000    3.697E+00    2.5875574E+06    2.8833054E-09    3.2581144E-09    2.5875574E+06    4.2834871E-09    2.5875574E+06
   -6.00   600.000    3.675E+00    2.5863812E+06    2.8854429E-09    3.2648412E-09    2.5863812E+06    4.4721782E-09    2.5863812E+06
   -5.99   600.000    3.653E+00    2.5829860E+06    2.8761369E-09    3.2630274E-09    2.5829860E+06    4.6973438E-09    2.5829860E+06
   -5.98   600.000    3.631E+00    2.5790206E+06    2.8609744E-09    3.2578186E-09    2.5790206E+06    4.9657229E-09    2.5790206E+06
   -5.97   600.000    3.609E+00    2.5764573E+06    2.8462354E-09    3.2550992E-09    2.5764573E+06    5.2831450E-09    2.5764573E+06
   -5.96   600.000    3.588E+00    2.5774027E+06    2.8385772E-09    3.2612093E-09    2.5774027E+06    5.6540787E-09    2.5774027E+06
   -5.95   600.000    3.566E+00    2.5838410E+06    2.8447580E-09    3.2826632E-09    2.5838410E+06    6.0812415E-09    2.5838410E+06
   -5.94   600.000    3.544E+00    2.5973532E+06    2.8714365E-09    3.3259066E-09    2.5973532E+06    6.5653357E-09    2.5973532E+06
   -5.93   600.000    3.522E+00    2.6188624E+06    2.9250629E-09    3.3971354E-09    2.6188624E+06    7.1049714E-09    2.6188625E+06
   -5.92   600.000    3.500E+00    2.6484579E+06    3.0118393E-09    3.5021738E-09    2.6484579E+06    7.6968227E-09    2.6484579E+06
   -5.91   600.000    3.478E+00    2.6853277E+06    3.1376973E-09    3.6463828E-09    2.6853277E+06    8.3360221E-09    2.6853277E+06
   -5.90   600.000    3.455E+00    2.7278144E+06    3.3082156E-09    3.8345427E-09    2.7278144E+06    9.0167454E-09    2.7278144E+06
   -5.89   600.000    3.432E+00    2.7735812E+06    3.5283980E-09    4.0706463E-09    2.7735812E+06    9.7328684E-09    2.7735812E+06
   -5.88   600.000    3.409E+00    2.8198570E+06    3.8022491E-09    4.3575457E-09    2.8198570E+06    1.0478525E-08    2.8198570E+06
   -5.87   600.000    3.386E+00    2.8637200E+06    4.1321316E-09    4.6964280E-09    2.8637200E+06    1.1248362E-08    2.8637200E+06
   -5.86   600.000    3.363E+00    2.9023751E+06    4.5179474E-09    5.0861401E-09    2.9023751E+06    1.2037340E-08    2.9023751E+06
   -5.85   600.000    3.339E+00    2.9333897E+06    4.9562525E-09    5.5224442E-09    2.9333897E+06    1.2840007E-08    2.9333898E+06
   -5.84   600.000    3.315E+00    2.9548658E+06    5.4394724E-09    5.9973391E-09    2.9548658E+06    1.3649374E-08    2.9548658E+06
   -5.83   600.000    3.291E+00    2.9655426E+06    5.9554091E-09    6.4986200E-09    2.9655426E+06    1.4455664E-08    2.9655426E+06
   -5.82   600.000    3.267E+00    2.9648423E+06    6.4872260E-09    7.0098522E-09    2.9648423E+06    1.5245362E-08    2.9648423E+06
   -5.81   600.000    3.243E+00    2.9528741E+06    7.0140445E-09    7.5109072E-09    2.9528741E+06    1.6000988E-08    2.9528741E+06
   -5.80   600.000    3.219E+00    2.9304130E+06    7.5122115E-09    7.9791364E-09    2.9304130E+06    1.6701923E-08    2.9304130E+06
   -5.79   600.000    3.196E+00    2.8988588E+06    7.9571845E-09    8.3911551E-09    2.8988588E+06    1.7326359E-08    2.8988588E+06
   -5.78   600.000    3.172E+00    2.8601670E+06    8.3258535E-09    8.7250750E-09    2.8601670E+06    1.7854126E-08    2.8601671E+06
   -5.77   600.000    3.148E+00    2.8167384E+06    8.5989923E-09    8.9628856E-09    2.8167384E+06    1.8269836E-08    2.8167386E+06
   -5.76   600.000    3.124E+00    2.7712519E+06    8.7634359E-09    9.0925827E-09    2.7712519E+06    1.8565610E-08    2.7712520E+06
   -5.75   600.000    3.100E+00    2.7264416E+06    8.8135712E-09    9.1096248E-09    2.7264416E+06    1.8742674E-08    2.7264418E+06
   -5.74   600.000    3.076E+00    2.6848347E+06    8.7518331E-09    9.0174076E-09    2.6848347E+06    1.8811357E-08    2.6848349E+06
   -5.73   600.000    3.052E+00    2.6484859E+06    8.5881136E-09    8.8266609E-09    2.6484859E+06    1.8789463E-08    2.6484862E+06
   -5.72   600.000    3.028E+00    2.6187580E+06    8.3382534E-09    8.5539402E-09    2.6187580E+06    1.8699438E-08    2.6187583E+06
   -5.71   600.000    3.003E+00    2.5961916E+06    8.0220048E-09    8.2196047E-09    2.5961916E+06    1.8565077E-08    2.5961920E+06
   -5.70   600.000    2.978E+00    2.5804987E+06    7.6609477E-09    7.8457604E-09    2.5804987E+06    1.8408601E-08    2.5804991E+06
   -5.69   600.000    2.952E+00    2.5706844E+06    7.2767730E-09    7.4545747E-09    2.5706844E+06    1.8248755E-08    2.5706850E+06
   -5.68   600.000    2.926E+00    2.5652769E+06    6.8901524E-09    7.0671717E-09    2.5652769E+06    1.8100170E-08    2.5652776E+06
   -5.67   600.000    2.898E+00    2.5626199E+06    6.5201782E-09    6.7030749E-09    2.5626199E+06    1.7973841E-08    2.5626208E+06
   -5.66   600.000    2.869E+00    2.5611711E+06    6.1841587E-09    6.3799797E-09    2.5611711E+06    1.7878215E-08    2.5611721E+06
   -5.65   600.000    2.839E+00    2.5597470E+06    5.8974747E-09    6.1135573E-09    2.5597470E+06    1.7820305E-08    2.5597483E+06
   -5.64   600.000    2.807E+00    2.5576735E+06    5.6732467E-09    5.9170488E-09    2.5576735E+06    1.7806343E-08    2.5576751E+06
   -5.63   600.000    2.774E+00    2.5548184E+06    5.5217052E-09    5.8005569E-09    2.5548184E+06    1.7841738E-08    2.5548203E+06
   -5.62   600.000    2.739E+00    2.5515124E+06    5.4493357E-09    5.7701189E-09    2.5515124E+06    1.7930439E-08    2.5515147E+06
   -5.61   600.000    2.701E+00    2.5483837E+06    5.4580126E-09    5.8267893E-09    2.5483837E+06    1.8073991E-08    2.5483864E+06
   -5.60   600.000    2.662E+00    2.5461462E+06    5.5443966E-09    5.9660117E-09    2.5461462E+06    1.8270672E-08    2.5461495E+06
   -5.59   600.000    2.620E+00    2.5453849E+06    5.6998230E-09    6.1775152E-09    2.5453849E+06    1.8515031E-08    2.5453889E+06
   -5.58   600.000    2.575E+00    2.5463792E+06    5.9107894E-09    6.4458457E-09    2.5463792E+06    1.8797994E-08    2.5463840E+06
   -5.57   600.000    2.528E+00    2.5489938E+06    6.1599963E-09    6.7514915E-09    2.5489938E+06    1.9107517E-08    2.5489997E+06
   -5.56   600.000    2.479E+00    2.5526571E+06    6.4277812E-09    7.0724462E-09    2.5526571E+06    1.9429648E-08    2.5526643E+06
   -5.55   600.000    2.426E+00    2.5564283E+06    6.6937315E-09    7.3859884E-09    2.5564283E+06    1.9749763E-08    2.5564370E+06
   -5.54   600.000    2.372E+00    2.5591386E+06    6.9382807E-09    7.6704662E-09    2.5591386E+06    2.0053804E-08    2.5591492E+06
   -5.53   600.000    2.314E+00    2.5595753E+06    7.1441367E-09    7.9069089E-09    2.5595753E+06    2.0329323E-08    2.5595881E+06
   -5.52   600.000    2.255E+00    2.5566655E+06    7.2974390E-09    8.0803307E-09    2.5566655E+06    2.0566237E-08    2.5566810E+06
   -5.51   600.000    2.194E+00    2.5496172E+06    7.3885632E-09    8.1806186E-09    2.5496172E+06    2.0757186E-08    2.5496360E+06
   -5.50   600.000    2.131E+00    2.5379893E+06    7.4125056E-09    8.2029282E-09    2.5379893E+06    2.0897441E-08    2.5380121E+06
   -5.49   600.000    2.067E+00    2.5216854E+06    7.3688131E-09    8.1475600E-09    2.5216854E+06    2.0984363E-08    2.5217130E+06
   -5.48   600.000    2.003E+00    2.5008875E+06    7.2610830E-09    8.0193602E-09    2.5008875E+06    2.1016528E-08    2.5009210E+06
   -5.47   600.000    1.937E+00    2.4759655E+06    7.0961299E-09    7.8267705E-09    2.4759655E+06    2.0992736E-08    2.4760061E+06
   -5.46   600.000    1.872E+00    2.4473906E+06    6.8829800E-09    7.5807034E-09    2.4473906E+06    2.0911180E-08    2.4474396E+06
   -5.45   600.000    1.807E+00    2.4156741E+06    6.6318668E-09    7.2934242E-09    2.4156741E+06    2.0769047E-08    2.4157335E+06
   -5.44   600.000    1.742E+00    2.3813343E+06    6.3533719E-09    6.9775804E-09    2.3813343E+06    2.0562716E-08    2.3814062E+06
   -5.43   600.000    1.679E+00    2.3448800E+06    6.0577857E-09    6.6454483E-09    2.3448800E+06    2.0288529E-08    2.3449669E+06
   -5.42   600.000    1.616E+00    2.3067996E+06    5.7546853E-09    6.3083943E-09    2.3067996E+06    1.9943995E-08    2.3069046E+06
   -5.41   600.000    1.554E+00    2.2675455E+06    5.4526697E-09    5.9765008E-09    2.2675455E+06    1.9529110E-08    2.2676722E+06
   -5.40   600.000    1.493E+00    2.2275125E+06    5.1591741E-09    5.6582936E-09    2.2275125E+06    1.9047474E-08    2.2276652E+06
   -5.39   600.000    1.433E+00    2.1870145E+06    4.8803027E-09    5.3605254E-09    2.1870145E+06    1.8506910E-08    2.1871984E+06
   -5.38   600.000    1.375E+00    2.1462670E+06    4.6206682E-09    5.0880130E-09    2.1462670E+06    1.7919405E-08    2.1464881E+06
   -5.37   600.000    1.318E+00    2.1053818E+06    4.3832676E-09    4.8435571E-09    2.1053818E+06    1.7300348E-08    2.1056472E+06
   -5.36   600.000    1.262E+00    2.0643758E+06    4.1694467E-09    4.6279844E-09    2.0643758E+06    1.6667179E-08    2.0646936E+06
   -5.35   600.000    1.207E+00    2.0231905E+06    3.9789921E-09    4.4403361E-09    2.0231905E+06    1.6037675E-08    2.0235701E+06
   -5.34   600.000    1.153E+00    1.9817169E+06    3.8103575E-09    4.2781884E-09    1.9817169E+06    1.5428114E-08    1.9821692E+06
   -5.33   600.000    1.101E+00    1.9398170E+06    3.6609919E-09    4.1380639E-09    1.9398170E+06    1.4851593E-08    1.9403541E+06
   -5.32   600.000    1.050E+00    1.8973369E+06    3.5277167E-09    4.0158694E-09    1.8973369E+06    1.4316657E-08    1.8979725E+06
   -5.31   600.000    1.000E+00    1.8541128E+06    3.4070955E-09    3.9073088E-09    1.8541128E+06    1.3826416E-08    1.8548616E+06
   -5.30   600.000    9.518E-01    1.8099719E+06    3.2957577E-09    3.8082341E-09    1.8099719E+06    1.3378232E-08    1.8108503E+06
   -5.29   600.000    9.047E-01    1.7647388E+06    3.1906619E-09    3.7149277E-09    1.7647388E+06    1.2964088E-08    1.7657641E+06
   -5.28   600.000    8.590E-01    1.7182499E+06    3.0892988E-09    3.6243175E-09    1.7182499E+06    1.2571658E-08    1.7194403E+06
   -5.27   600.000    8.148E-01    1.6703793E+06    2.9898390E-09    3.5341345E-09    1.6703793E+06    1.2186052E-08    1.6717535E+06
   -5.26   600.000    7.722E-01    1.6210703E+06    2.8912223E-09    3.4430024E-09    1.6210703E+06    1.1792044E-08    1.6226474E+06
   -5.25   600.000    7.312E-01    1.5703663E+06    2.7931690E-09    3.3504416E-09    1.5703663E+06    1.1376458E-08    1.5721652E+06
   -5.24   600.000    6.918E-01    1.5184271E+06    2.6960902E-09    3.2567608E-09    1.5184271E+06    1.0930268E-08    1.5204664E+06
   -5.23   600.000    6.540E-01    1.4655245E+06    2.6008844E-09    3.1628270E-09    1.4655245E+06    1.0449958E-08    1.4678219E+06
   -5.22   600.000    6.179E-01    1.4120112E+06    2.5086351E-09    3.0697317E-09    1.4120112E+06    9.9378569E-09    1.4145838E+06
   -5.21   600.000    5.834E-01    1.3582701E+06    2.4202592E-09    2.9784112E-09    1.3582701E+06    9.4013998E-09    1.3611336E+06
   -5.20   600.000    5.504E-01    1.3046538E+06    2.3361852E-09    2.8893059E-09    1.3046538E+06    8.8515333E-09    1.3078226E+06
   -5.19   600.000    5.190E-01    1.2514329E+06    2.2561435E-09    2.8021448E-09    1.2514329E+06    8.3007058E-09    1.2549200E+06
   -5.18   600.000    4.891E-01    1.1987667E+06    2.1791291E-09    2.7159180E-09    1.1987667E+06    7.7609118E-09    1.2025837E+06
   -5.17   600.000    4.606E-01    1.1467036E+06    2.1035520E-09    2.6290489E-09    1.1467036E+06    7.2421804E-09    1.1508608E+06
   -5.16   600.000    4.334E-01    1.0952083E+06    2.0275440E-09    2.5397251E-09    1.0952083E+06    6.7517159E-09    1.0997149E+06
   -5.15   600.000    4.075E-01    1.0442048E+06    1.9493436E-09    2.4463036E-09    1.0442048E+06    6.2937079E-09    1.0490686E+06
   -5.14   600.000    3.828E-01    9.9362119E+05    1.8676715E-09    2.3476941E-09    9.9362119E+05    5.8696812E-09    9.9884850E+05
   -5.13   600.000    3.593E-01    9.4342529E+05    1.7820106E-09    2.2436340E-09    9.4342529E+05    5.4791774E-09    9.4902066E+05
   -5.12   600.000    3.369E-01    8.9364633E+05    1.6927399E-09    2.1348063E-09    8.9364633E+05    5.1205491E-09    8.9961164E+05
   -5.11   600.000    3.156E-01    8.4438223E+05    1.6011069E-09    2.0227915E-09    8.4438223E+05    4.7916822E-09    8.5071600E+05
   -5.10   600.000    2.953E-01    7.9579581E+05    1.5090604E-09    1.9098791E-09    7.9579581E+05    4.4905199E-09    8.0249261E+05
   -5.09   600.000    2.760E-01    7.4810284E+05    1.4189893E-09    1.7987875E-09    7.4810284E+05    4.2153319E-09    7.5515296E+05
   -5.08   600.000    2.576E-01    7.0155325E+05    1.3334204E-09    1.6923461E-09    7.0155325E+05    3.9647361E-09    7.0894287E+05
   -5.07   600.000    2.400E-01    6.5640641E+05    1.2547212E-09    1.5931828E-09    6.5640641E+05    3.7375258E-09    6.6411787E+05
   -5.06   600.000    2.233E-01    6.1290191E+05    1.1848414E-09    1.5034526E-09    6.1290191E+05    3.5323883E-09    6.2091403E+05
   -5.05   600.000    2.074E-01    5.7122955E+05    1.1251097E-09    1.4246220E-09    5.7122955E+05    3.3476089E-09    5.7951761E+05
   -5.04   600.000    1.922E-01    5.3150424E+05    1.0760964E-09    1.3573257E-09    5.3150424E+05    3.1808451E-09    5.4003955E+05
   -5.03   600.000    1.776E-01    4.9375194E+05    1.0375474E-09    1.3013005E-09    4.9375194E+05    3.0290372E-09    5.0250110E+05
   -5.02   600.000    1.638E-01    4.5791077E+05    1.0083960E-09    1.2554066E-09    4.5791077E+05    2.8884906E-09    4.6683491E+05
   -5.01   600.000    1.506E-01    4.2384803E+05    9.8685240E-10    1.2177361E-09    4.2384803E+05    2.7551255E-09    4.3290242E+05
   -5.00   600.000    1.380E-01    3.9138943E+05    9.7056799E-10    1.1858018E-09    3.9138943E+05    2.6248515E-09    4.0052372E+05
   -4.99   600.000    1.260E-01    3.6035401E+05    9.5685617E-10    1.1567862E-09    3.6035401E+05    2.4939920E-09    3.6951298E+05
   -4.98   600.000    1.146E-01    3.3058672E+05    9.4294762E-10    1.1278210E-09    3.3058672E+05    2.3596720E-09    3.3971152E+05
   -4.97   600.000    1.038E-01    3.0198240E+05    9.2625118E-10    1.0962657E-09    3.0198240E+05    2.2200898E-09    3.1101183E+05
   -4.96   600.000    9.360E-02    2.7449738E+05    9.0459329E-10    1.0599548E-09    2.7449738E+05    2.0746298E-09    2.8336905E+05
   -4.95   600.000    8.401E-02    2.4814843E+05    8.7641163E-10    1.0173878E-09    2.4814843E+05    1.9238112E-09    2.5679983E+05
   -4.94   600.000    7.504E-02    2.2300159E+05    8.4088154E-10    9.6784448E-10    2.2300159E+05    1.7691026E-09    2.3137113E+05
   -4.93   600.000    6.669E-02    1.9915470E+05    7.9795913E-10    9.1141121E-10    1.9915470E+05    1.6126528E-09    2.0718313E+05
   -4.92   600.000    5.897E-02    1.7671802E+05    7.4833333E-10    8.4891403E-10    1.7671802E+05    1.4569906E-09    1.8435013E+05
   -4.91   600.000    5.187E-02    1.5579596E+05    6.9329327E-10    7.8176936E-10    1.5579596E+05    1.3047339E-09    1.6298275E+05
   -4.90   600.000    4.538E-02    1.3647257E+05    6.3453325E-10    7.1177595E-10    1.3647257E+05    1.1583419E-09    1.4317349E+05
   -4.89   600.000    3.950E-02    1.1880162E+05    5.7393029E-10    6.4088421E-10    1.1880162E+05    1.0199257E-09    1.2498656E+05
   -4.88   600.000    3.420E-02    1.0280152E+05    5.1333206E-10    5.7098097E-10    1.0280152E+05    8.9112870E-10    1.0845223E+05
   -4.87   600.000    2.947E-02    8.8454584E+04    4.5438669E-10    5.0372018E-10    8.8454584E+04    7.7307268E-10    9.3565266E+04
   -4.86   600.000    2.527E-02    7.5709793E+04    3.9843183E-10    4.4041584E-10    7.5709793E+04    6.6636407E-10    8.0286756E+04
   -4.85   600.000    2.157E-02    6.4487948E+04    3.4644517E-10    3.8199835E-10    6.4487948E+04    5.7114468E-10    6.8548441E+04
   -4.84   600.000    1.833E-02    5.4688191E+04    2.9904723E-10    3.2902369E-10    5.4688191E+04    4.8717138E-10    5.8258597E+04
   -4.83   600.000    1.552E-02    4.6194963E+04    2.5654053E-10    2.8171906E-10    4.6194963E+04    4.1390860E-10    4.9308617E+04
   -4.82   600.000    1.309E-02    3.8884653E+04    2.1896903E-10    2.4004786E-10    3.8884653E+04    3.5062090E-10    4.1579541E+04
   -4.81   600.000    1.100E-02    3.2631437E+04    1.8618382E-10    2.0378001E-10    3.2631437E+04    2.9645651E-10    3.4948011E+04
   -4.80   600.000    9.223E-03    2.7312008E+04    1.5790554E-10    1.7255777E-10    2.7312008E+04    2.5051703E-10    2.9291283E+04
   -4.79   600.000    7.711E-03    2.2809124E+04    1.3377808E-10    1.4595170E-10    2.2809124E+04    2.1191152E-10    2.4491145E+04
   -4.78   600.000    6.431E-03    1.9014015E+04    1.1341131E-10    1.2350480E-10    1.9014015E+04    1.7979579E-10    2.0436726E+04
   -4.77   600.000    5.353E-03    1.5827801E+04    9.6412965E-11    1.0476496E-10    1.5827801E+04    1.5339887E-10    1.7026291E+04
   -4.76   600.000    4.447E-03    1.3162098E+04    8.2410990E-11    8.9307424E-11    1.3162098E+04    1.3203922E-10    1.4168179E+04
   -4.75   600.000    3.688E-03    1.0939028E+04    7.1068242E-11    7.6749111E-11    1.0939028E+04    1.1513351E-10    1.1781070E+04
   -4.74   600.000    3.053E-03    9.0907963E+03    6.2091436E-11    6.6757098E-11    9.0907963E+03    1.0220031E-10    9.7937608E+03
   -4.73   600.000    2.523E-03    7.5590049E+03    5.5236115E-11    5.9052919E-11    7.5590049E+03    9.2860775E-11    8.1446059E+03
   -4.72   600.000    2.080E-03    6.2938150E+03    5.0309089E-11    5.3414324E-11    6.2938150E+03    8.6837911E-11    6.7807676E+03
   -4.71   600.000    1.711E-03    5.2530562E+03    4.7169511E-11    4.9675670E-11    5.2530562E+03    8.3955824E-11    5.6573662E+03
   -4.70   600.000    1.404E-03    4.4013432E+03    4.5729465E-11    4.7727864E-11    4.4013432E+03    8.4139821E-11    4.7366118E+03
   -4.69   600.000    1.146E-03    3.7092436E+03    4.5954742E-11    4.7518534E-11    3.7092436E+03    8.7418175E-11    3.9869674E+03
   -4.68   600.000    9.301E-04    3.1525209E+03    4.7866297E-11    4.9052945E-11    3.1525209E+03    9.3926132E-11    3.3823747E+03
   -4.67   600.000    7.480E-04    2.7114681E+03    5.1542789E-11    5.2396032E-11    2.7114681E+03    1.0391268E-10    2.9015642E+03
   -4.66   600.000    5.932E-04    2.3703358E+03    5.7124498E-11    5.7675878E-11    2.3703358E+03    1.1775055E-10    2.5274560E+03
   -4.65   600.000    4.602E-04    2.1168565E+03    6.4818903E-11    6.5088873E-11    2.1168565E+03    1.3594982E-10    2.2466559E+03
   -4.64   600.000    3.442E-04    1.9418611E+03    7.4908157E-11    7.4906816E-11    1.9418611E+03    1.5917571E-10    2.0490457E+03
   -4.63   600.000    2.410E-04    1.8389843E+03    8.7758693E-11    8.7486155E-11    1.8389843E+03    1.8827089E-10    1.9274640E+03
   -4.62   600.000    1.466E-04    1.8044563E+03    1.0383317E-10    1.0327959E-10    1.8044563E+03    2.2428282E-10    1.8774745E+03
   -4.61   600.000    5.774E-05    1.8369735E+03    1.2370493E-10    1.2285022E-10    1.8369735E+03    2.6849651E-10    1.8972179E+03
   -4.60   600.000   -2.892E-05    1.9376491E+03    1.4807519E-10    1.4688832E-10    1.9376491E+03    3.2247301E-10    1.9873447E+03
   -4.59   600.000   -1.165E-04    2.1100394E+03    1.7779282E-10    1.7623084E-10    2.1100394E+03    3.8809374E-10    2.1510268E+03
   -4.58   600.000   -2.083E-04    2.3602448E+03    2.1387676E-10    2.1188340E-10    2.3602448E+03    4.6761021E-10    2.3940455E+03
   -4.57   600.000   -3.076E-04    2.6970858E+03    2.5754046E-10    2.5504440E-10    2.6970858E+03    5.6369837E-10    2.7249570E+03
   -4.56   600.000   -4.179E-04    3.1323528E+03    3.1021762E-10    3.0713026E-10    3.1323528E+03    6.7951552E-10    3.1553326E+03
   -4.55   600.000   -5.431E-04    3.6811281E+03    3.7358745E-10    3.6980037E-10    3.6811281E+03    8.1875635E-10    3.7000736E+03
   -4.54   600.000   -6.875E-04    4.3621776E+03    4.4959707E-10    4.4497898E-10    4.3621776E+03    9.8570254E-10    4.3777961E+03
   -4.53   600.000   -8.561E-04    5.1984041E+03    5.4047709E-10    5.3487045E-10    5.1984041E+03    1.1852574E-09    5.2112794E+03
   -4.52   600.000   -1.055E-03    6.2173507E+03    6.4874459E-10    6.4196186E-10    6.2173507E+03    1.4229527E-09    6.2279643E+03
   -4.51   600.000   -1.289E-03    7.4517315E+03    7.7718558E-10    7.6900528E-10    7.4517315E+03    1.7049110E-09    7.4604806E+03
   -4.50   600.000   -1.567E-03    8.9399583E+03    9.2880607E-10    9.1896883E-10    8.9399583E+03    2.0377376E-09    8.9471703E+03
   -4.49   600.000   -1.897E-03    1.0726614E+04    1.1067381E-09    1.0949431E-09    1.0726614E+04    2.4283150E-09    1.0732559E+04
   -4.48   600.000   -2.289E-03    1.2862808E+04    1.3140844E-09    1.2999863E-09    1.2862808E+04    2.8834601E-09    1.2867709E+04
   -4.47   600.000   -2.752E-03    1.5406332E+04    1.5536837E-09    1.5368916E-09    1.5406332E+04    3.4094081E-09    1.5410373E+04
   -4.46   600.000   -3.300E-03    1.8421511E+04    1.8277818E-09    1.8078598E-09    1.8421511E+04    4.0110847E-09    1.8424843E+04
   -4.45   600.000   -3.944E-03    2.1978644E+04    2.1375973E-09    2.1140686E-09    2.1978644E+04    4.6911473E-09    2.1981391E+04
   -4.44   600.000   -4.700E-03    2.6152931E+04    2.4827906E-09    2.4551459E-09    2.6152931E+04    5.4488064E-09    2.6155197E+04
   -4.43   600.000   -5.582E-03    3.1022815E+04    2.8608652E-09    2.8285763E-09    3.1022815E+04    6.2784943E-09    3.1024685E+04
   -4.42   600.000   -6.606E-03    3.6667725E+04    3.2665711E-09    3.2291103E-09    3.6667725E+04    7.1685306E-09    3.6669269E+04
   -4.41   600.000   -7.788E-03    4.3165300E+04    3.6914221E-09    3.6482881E-09    4.3165300E+04    8.1000314E-09    4.3166575E+04
   -4.40   600.000   -9.145E-03    5.0588281E+04    4.1234812E-09    4.0742298E-09    5.0588281E+04    9.0464024E-09    5.0589337E+04
   -4.39   600.000   -1.069E-02    5.9001382E+04    4.5475894E-09    4.4918668E-09    5.9001382E+04    9.9738032E-09    5.9002257E+04
   -4.38   600.000   -1.245E-02    6.8458472E+04    4.9461850E-09    4.8837612E-09    6.8458472E+04    1.0842920E-08    6.8459199E+04
   -4.37   600.000   -1.442E-02    7.9000450E+04    5.3007765E-09    5.2315728E-09    7.9000450E+04    1.1612187E-08    7.9001056E+04
   -4.36   600.000   -1.663E-02    9.0654048E+04    5.5939692E-09    5.5180771E-09    9.0654048E+04    1.2242265E-08    9.0654556E+04
   -4.35   600.000   -1.908E-02    1.0343171E+05    5.8117634E-09    5.7294498E-09    1.0343171E+05    1.2701154E-08    1.0343214E+05
   -4.34   600.000   -2.178E-02    1.1733252E+05    5.9456781E-09    5.8573761E-09    1.1733252E+05    1.2968982E-08    1.1733289E+05
   -4.33   600.000   -2.474E-02    1.3234418E+05    5.9942109E-09    5.9004956E-09    1.3234418E+05    1.3041379E-08    1.3234450E+05
   -4.32   600.000   -2.797E-02    1.4844592E+05    5.9632499E-09    5.8648016E-09    1.4844592E+05    1.2930591E-08    1.4844619E+05
   -4.31   600.000   -3.146E-02    1.6561212E+05    5.8653069E-09    5.7628659E-09    1.6561212E+05    1.2663987E-08    1.6561237E+05
   -4.30   600.000   -3.523E-02    1.8381644E+05    5.7177503E-09    5.6120658E-09    1.8381644E+05    1.2280312E-08    1.8381668E+05
   -4.29   600.000   -3.927E-02    2.0303534E+05    5.5404608E-09    5.4322404E-09    2.0303534E+05    1.1824540E-08    2.0303557E+05
   -4.28   600.000   -4.359E-02    2.2325011E+05    5.3534384E-09    5.2433015E-09    2.2325011E+05    1.1342463E-08    2.2325034E+05
   -4.27   600.000   -4.818E-02    2.4444634E+05    5.1748163E-09    5.0632581E-09    2.4444634E+05    1.0876000E-08    2.4444658E+05
   -4.26   600.000   -5.305E-02    2.6661045E+05    5.0195572E-09    4.9069286E-09    2.6661045E+05    1.0459882E-08    2.6661071E+05
   -4.25   600.000   -5.820E-02    2.8972427E+05    4.8988824E-09    4.7853902E-09    2.8972427E+05    1.0119943E-08    2.8972455E+05
   -4.24   600.000   -6.363E-02    3.1375934E+05    4.8203098E-09    4.7060362E-09    3.1375934E+05    9.8728539E-09    3.1375966E+05
   -4.23   600.000   -6.936E-02    3.3867328E+05    4.7880745E-09    4.6730114E-09    3.3867328E+05    9.7269080E-09    3.3867364E+05
   -4.22   600.000   -7.537E-02    3.6440962E+05    4.8036885E-09    4.6877761E-09    3.6440962E+05    9.6833920E-09    3.6441005E+05
   -4.21   600.000   -8.167E-02    3.9090116E+05    4.8664450E-09    4.7495984E-09    3.9090116E+05    9.7380764E-09    3.9090167E+05
   -4.20   600.000   -8.826E-02    4.1807505E+05    4.9737476E-09    4.8558558E-09    4.1807505E+05    9.8824938E-09    4.1807565E+05
   -4.19   600.000   -9.515E-02    4.4585739E+05    5.1212424E-09    5.0021275E-09    4.4585739E+05    1.0104829E-08    4.4585812E+05
   -4.18   600.000   -1.023E-01    4.7417563E+05    5.3028124E-09    5.1821460E-09    4.7417563E+05    1.0390432E-08    4.7417651E+05
   -4.17   600.000   -1.098E-01    5.0295882E+05    5.5105609E-09    5.3877482E-09    5.0295882E+05    1.0722135E-08    5.0295988E+05
   -4.16   600.000   -1.176E-01    5.3213774E+05    5.7349332E-09    5.6089912E-09    5.3213774E+05    1.1080654E-08    5.3213902E+05
   -4.15   600.000   -1.258E-01    5.6164808E+05    5.9651110E-09    5.8345766E-09    5.6164808E+05    1.1445373E-08    5.6164964E+05
   -4.14   600.000   -1.342E-01    5.9143857E+05    6.1897405E-09    6.0526478E-09    5.9143857E+05    1.1795686E-08    5.9144045E+05
   -4.13   600.000   -1.429E-01    6.2148340E+05    6.3979530E-09    6.2519076E-09    6.2148340E+05    1.2112881E-08    6.2148568E+05
   -4.12   600.000   -1.520E-01    6.5179482E+05    6.5805115E-09    6.4228717E-09    6.5179482E+05    1.2382286E-08    6.5179759E+05
   -4.11   600.000   -1.614E-01    6.8242840E+05    6.7308359E-09    6.5589804E-09    6.8242840E+05    1.2595195E-08    6.8243175E+05
   -4.10   600.000   -1.712E-01    7.1347424E+05    6.8456415E-09    6.6572820E-09    7.1347424E+05    1.2750044E-08    7.1347830E+05
   -4.09   600.000   -1.813E-01    7.4503098E+05    6.9250132E-09    6.7184954E-09    7.4503098E+05    1.2852436E-08    7.4503591E+05
   -4.08   600.000   -1.918E-01    7.7716721E+05    6.9719016E-09    6.7464386E-09    7.7716721E+05    1.2913940E-08    7.7717320E+05
   -4.07   600.000   -2.026E-01    8.0988222E+05    6.9912057E-09    6.7470045E-09    8.0988222E+05    1.2949955E-08    8.0988948E+05
   -4.06   600.000   -2.139E-01    8.4308187E+05    6.9887323E-09    6.7269948E-09    8.4308187E+05    1.2977194E-08    8.4309067E+05
   -4.05   600.000   -2.256E-01    8.7658277E+05    6.9703257E-09    6.6931334E-09    8.7658277E+05    1.3011398E-08    8.7659345E+05
   -4.04   600.000   -2.376E-01    9.1014834E+05    6.9413590E-09    6.6514671E-09    9.1014834E+05    1.3065682E-08    9.1016130E+05
   -4.03   600.000   -2.502E-01    9.4354828E+05    6.9066042E-09    6.6071887E-09    9.4354828E+05    1.3149651E-08    9.4356400E+05
   -4.02   600.000   -2.631E-01    9.7662265E+05    6.8703466E-09    6.5647504E-09    9.7662265E+05    1.3269090E-08    9.7664172E+05
   -4.01   600.000   -2.765E-01    1.0093282E+06    6.8365250E-09    6.5280517E-09    1.0093282E+06    1.3425938E-08    1.0093513E+06
   -4.00   600.000   -2.904E-01    1.0417495E+06    6.8087170E-09    6.5005082E-09    1.0417495E+06    1.3618283E-08    1.0417776E+06
   -3.99   600.000   -3.048E-01    1.0740707E+06    6.7898972E-09    6.4849130E-09    1.0740707E+06    1.3840338E-08    1.0741047E+06
   -3.98   600.000   -3.197E-01    1.1065146E+06    6.7820430E-09    6.4831367E-09    1.1065146E+06    1.4082586E-08    1.1065559E+06
   -3.97   600.000   -3.351E-01    1.1392720E+06    6.7857582E-09    6.4958133E-09    1.1392720E+06    1.4332376E-08    1.1393221E+06
   -3.96   600.000   -3.511E-01    1.1724406E+06    6.8001022E-09    6.5221778E-09    1.1724406E+06    1.4575196E-08    1.1725013E+06
   -3.95   600.000   -3.677E-01    1.2059934E+06    6.8227346E-09    6.5601634E-09    1.2059934E+06    1.4796600E-08    1.2060669E+06
   -3.94   600.000   -3.850E-01    1.2397806E+06    6.8503608E-09    6.6067523E-09    1.2397806E+06    1.4984464E-08    1.2398698E+06
   -3.93   600.000   -4.030E-01    1.2735609E+06    6.8793435E-09    6.6584747E-09    1.2735609E+06    1.5131025E-08    1.2736690E+06
   -3.92   600.000   -4.217E-01    1.3070461E+06    6.9062969E-09    6.7118982E-09    1.3070461E+06    1.5234144E-08    1.3071770E+06
   -3.91   600.000   -4.412E-01    1.3399476E+06    6.9285122E-09    6.7639852E-09    1.3399476E+06    1.5297482E-08    1.3401063E+06
   -3.90   600.000   -4.615E-01    1.3720143E+06    6.9441669E-09    6.8122836E-09    1.3720143E+06    1.5329628E-08    1.3722063E+06
   -3.89   600.000   -4.827E-01    1.4030575E+06    6.9523836E-09    6.8550199E-09    1.4030575E+06    1.5342594E-08    1.4032899E+06
   -3.88   600.000   -5.049E-01    1.4329674E+06    6.9532745E-09    6.8912189E-09    1.4329674E+06    1.5350290E-08    1.4332486E+06
   -3.87   600.000   -5.280E-01    1.4617209E+06    6.9480928E-09    6.9209584E-09    1.4617209E+06    1.5367514E-08    1.4620608E+06
   -3.86   600.000   -5.522E-01    1.4893827E+06    6.9395272E-09    6.9457778E-09    1.4893827E+06    1.5409733E-08    1.4897932E+06
   -3.85   600.000   -5.776E-01    1.5160980E+06    6.9320652E-09    6.9691487E-09    1.5160980E+06    1.5493566E-08    1.5165932E+06
   -3.84   600.000   -6.041E-01    1.5420726E+06    6.9322645E-09    6.9968359E-09    1.5420726E+06    1.5637603E-08    1.5426694E+06
   -3.83   600.000   -6.319E-01    1.5675405E+06    6.9487715E-09    7.0369753E-09    1.5675405E+06    1.5863065E-08    1.5682588E+06
   -3.82   600.000   -6.611E-01    1.5927188E+06    6.9919922E-09    7.0997687E-09    1.5927188E+06    1.6193867E-08    1.5935818E+06
   -3.81   600.000   -6.919E-01    1.6177581E+06    7.0734367E-09    7.1968083E-09    1.6177581E+06    1.6655876E-08    1.6187929E+06
   -3.80   600.000   -7.242E-01    1.6426964E+06    7.2048439E-09    7.3401461E-09    1.6426964E+06    1.7275370E-08    1.6439342E+06
   -3.79   600.000   -7.582E-01    1.6674273E+06    7.3972334E-09    7.5412597E-09    1.6674273E+06    1.8076905E-08    1.6689035E+06
   -3.78   600.000   -7.941E-01    1.6916884E+06    7.6599964E-09    7.8100458E-09    1.6916884E+06    1.9080856E-08    1.6934432E+06
   -3.77   600.000   -8.319E-01    1.7150747E+06    8.0000796E-09    8.1539126E-09    1.7150747E+06    2.0300934E-08    1.7171522E+06
   -3.76   600.000   -8.718E-01    1.7370726E+06    8.4212629E-09    8.5769884E-09    1.7370726E+06    2.1741902E-08    1.7395206E+06
   -3.75   600.000   -9.138E-01    1.7571105E+06    8.9235219E-09    9.0794466E-09    1.7571105E+06    2.3397715E-08    1.7599792E+06
   -3.74   600.000   -9.580E-01    1.7746184E+06    9.5024920E-09    9.6569680E-09    1.7746184E+06    2.5250282E-08    1.7779588E+06
   -3.73   600.000   -1.004E+00    1.7890892E+06    1.0149102E-08    1.0300400E-08    1.7890892E+06    2.7269049E-08    1.7929506E+06
   -3.72   600.000   -1.053E+00    1.8001359E+06    1.0849482E-08    1.0995706E-08    1.8001359E+06    2.9411587E-08    1.8045625E+06
   -3.71   600.000   -1.104E+00    1.8075387E+06    1.1585253E-08    1.1724315E-08    1.8075387E+06    3.1625269E-08    1.8125659E+06
   -3.70   600.000   -1.158E+00    1.8112770E+06    1.2334292E-08    1.2463928E-08    1.8112770E+06    3.3850039E-08    1.8169274E+06
   -3.69   600.000   -1.214E+00    1.8115414E+06    1.3072000E-08    1.3189832E-08    1.8115414E+06    3.6022124E-08    1.8178202E+06
   -3.68   600.000   -1.272E+00    1.8087197E+06    1.3773019E-08    1.3876641E-08    1.8087197E+06    3.8078396E-08    1.8156112E+06
   -3.67   600.000   -1.333E+00    1.8033559E+06    1.4413259E-08    1.4500347E-08    1.8033559E+06    3.9961031E-08    1.8108212E+06
   -3.66   600.000   -1.396E+00    1.7960822E+06    1.4971983E-08    1.5040400E-08    1.7960822E+06    4.1621960E-08    1.8040584E+06
   -3.65   600.000   -1.462E+00    1.7875289E+06    1.5433587E-08    1.5481507E-08    1.7875289E+06    4.3026532E-08    1.7959306E+06
   -3.64   600.000   -1.529E+00    1.7782230E+06    1.5788734E-08    1.5814760E-08    1.7782230E+06    4.4155855E-08    1.7869459E+06
   -3.63   600.000   -1.600E+00    1.7684881E+06    1.6034555E-08    1.6037843E-08    1.7684881E+06    4.5007380E-08    1.7774142E+06
   -3.62   600.000   -1.672E+00    1.7583614E+06    1.6173926E-08    1.6154294E-08    1.7583614E+06    4.5593698E-08    1.7673661E+06
   -3.61   600.000   -1.746E+00    1.7475467E+06    1.6214059E-08    1.6172082E-08    1.7475467E+06    4.5939907E-08    1.7565053E+06
   -3.60   600.000   -1.822E+00    1.7354147E+06    1.6164944E-08    1.6102000E-08    1.7354147E+06    4.6080273E-08    1.7442092E+06
   -3.59   600.000   -1.899E+00    1.7210591E+06    1.6038119E-08    1.5956382E-08    1.7210591E+06    4.6054925E-08    1.7295835E+06
   -3.58   600.000   -1.978E+00    1.7034042E+06    1.5846122E-08    1.5748482E-08    1.7034042E+06    4.5907108E-08    1.7115684E+06
   -3.57   600.000   -2.059E+00    1.6813483E+06    1.5602593E-08    1.5492517E-08    1.6813483E+06    4.5681128E-08    1.6890805E+06
   -3.56   600.000   -2.140E+00    1.6539191E+06    1.5322734E-08    1.5204068E-08    1.6539191E+06    4.5420770E-08    1.6611660E+06
   -3.55   600.000   -2.221E+00    1.6204125E+06    1.5023706E-08    1.4900446E-08    1.6204125E+06    4.5167935E-08    1.6271392E+06
   -3.54   600.000   -2.303E+00    1.5804919E+06    1.4724655E-08    1.4600720E-08    1.5804919E+06    4.4961405E-08    1.5866796E+06
   -3.53   600.000   -2.386E+00    1.5342320E+06    1.4446314E-08    1.4325335E-08    1.5342320E+06    4.4835933E-08    1.5398765E+06
   -3.52   600.000   -2.468E+00    1.4821055E+06    1.4210358E-08    1.4095513E-08    1.4821055E+06    4.4822033E-08    1.4872146E+06
   -3.51   600.000   -2.551E+00    1.4249210E+06    1.4038771E-08    1.3932670E-08    1.4249210E+06    4.4946717E-08    1.4295118E+06
   -3.50   600.000   -2.633E+00    1.3637267E+06    1.3953421E-08    1.3858045E-08    1.3637267E+06    4.5235077E-08    1.3678240E+06
   -3.49   600.000   -2.715E+00    1.2997005E+06    1.3975815E-08    1.3892500E-08    1.2997005E+06    4.5712171E-08    1.3033344E+06
   -3.48   600.000   -2.797E+00    1.2340411E+06    1.4126811E-08    1.4056275E-08    1.2340411E+06    4.6404328E-08    1.2372453E+06
   -3.47   600.000   -2.878E+00    1.1678749E+06    1.4425969E-08    1.4368364E-08    1.1678749E+06    4.7338987E-08    1.1706850E+06
   -3.46   600.000   -2.958E+00    1.1021853E+06    1.4890245E-08    1.4845229E-08    1.1021853E+06    4.8542438E-08    1.1046375E+06
   -3.45   600.000   -3.036E+00    1.0377691E+06    1.5531888E-08    1.5498713E-08    1.0377691E+06    5.0035275E-08    1.0398991E+06
   -3.44   600.000   -3.114E+00    9.7522041E+05    1.6355600E-08    1.6333211E-08    9.7522041E+05    5.1825899E-08    9.7706260E+05
   -3.43   600.000   -3.189E+00    9.1494038E+05    1.7355268E-08    1.7342400E-08    9.1494038E+05    5.3902869E-08    9.1652718E+05
   -3.42   600.000   -3.262E+00    8.5716926E+05    1.8510757E-08    1.8506041E-08    8.5716926E+05    5.6227312E-08    8.5853079E+05
   -3.41   600.000   -3.333E+00    8.0203401E+05    1.9785465E-08    1.9787525E-08    8.0203401E+05    5.8726917E-08    8.0319792E+05
   -3.40   600.000   -3.401E+00    7.4960421E+05    2.1125422E-08    2.1132959E-08    7.4960421E+05    6.1293301E-08    7.5059563E+05
   -3.39   600.000   -3.467E+00    6.9994753E+05    2.2460697E-08    2.2472558E-08    6.9994753E+05    6.3784462E-08    7.0078913E+05
   -3.38   600.000   -3.529E+00    6.5317750E+05    2.3709651E-08    2.3724865E-08    6.5317750E+05    6.6033617E-08    6.5388958E+05
   -3.37   600.000   -3.588E+00    6.0948819E+05    2.4786073E-08    2.4803872E-08    6.0948819E+05    6.7864672E-08    6.1008881E+05
   -3.36   600.000   -3.643E+00    5.6917324E+05    2.5608588E-08    2.5628397E-08    5.6917324E+05    6.9113002E-08    5.6967838E+05
   -3.35   600.000   -3.695E+00    5.3262945E+05    2.6110952E-08    2.6132374E-08    5.3262945E+05    6.9648461E-08    5.3305315E+05
   -3.34   600.000   -3.745E+00    5.0034644E+05    2.6251340E-08    2.6274128E-08    5.0034644E+05    6.9396238E-08    5.0070098E+05
   -3.33   600.000   -3.791E+00    4.7288558E+05    2.6018618E-08    2.6042660E-08    4.7288558E+05    6.8350911E-08    4.7318160E+05
   -3.32   600.000   -3.835E+00    4.5085143E+05    2.5434158E-08    2.5459456E-08    4.5085143E+05    6.6580231E-08    4.5109812E+05
   -3.31   600.000   -3.876E+00    4.3485969E+05    2.4548727E-08    2.4575391E-08    4.3485969E+05    6.4217591E-08    4.3506492E+05
   -3.30   600.000   -3.916E+00    4.2550501E+05    2.3435212E-08    2.3463455E-08    4.2550501E+05    6.1444836E-08    4.2567549E+05
   -3.29   600.000   -3.954E+00    4.2333182E+05    2.2178844E-08    2.2208975E-08    4.2333182E+05    5.8469279E-08    4.2347326E+05
   -3.28   600.000   -3.992E+00    4.2881003E+05    2.0866928E-08    2.0899352E-08    4.2881003E+05    5.5499548E-08    4.2892725E+05
   -3.27   600.000   -4.030E+00    4.4231618E+05    1.9579850E-08    1.9615064E-08    4.4231618E+05    5.2724350E-08    4.4241324E+05
   -3.26   600.000   -4.067E+00    4.6411928E+05    1.8384482E-08    1.8423073E-08    4.6411928E+05    5.0296692E-08    4.6419958E+05
   -3.25   600.000   -4.106E+00    4.9436998E+05    1.7330321E-08    1.7372966E-08    4.9436998E+05    4.8324400E-08    4.9443638E+05
   -3.24   600.000   -4.146E+00    5.3309125E+05    1.6448144E-08    1.6495626E-08    5.3309125E+05    4.6866438E-08    5.3314612E+05
   -3.23   600.000   -4.187E+00    5.8016962E+05    1.5750612E-08    1.5803838E-08    5.8016962E+05    4.5933824E-08    5.8021494E+05
   -3.22   600.000   -4.231E+00    6.3534709E+05    1.5234186E-08    1.5294220E-08    6.3534709E+05    4.5493799E-08    6.3538451E+05
   -3.21   600.000   -4.276E+00    6.9821509E+05    1.4881825E-08    1.4949932E-08    6.9821509E+05    4.5476165E-08    6.9824598E+05
   -3.20   600.000   -4.323E+00    7.6821265E+05    1.4666106E-08    1.4743798E-08    7.6821265E+05    4.5781065E-08    7.6823813E+05
   -3.19   600.000   -4.372E+00    8.4463149E+05    1.4552543E-08    1.4641609E-08    8.4463149E+05    4.6287798E-08    8.4465251E+05
   -3.18   600.000   -4.423E+00    9.2662979E+05    1.4502989E-08    1.4605501E-08    9.2662979E+05    4.6864460E-08    9.2664713E+05
   -3.17   600.000   -4.475E+00    1.0132555E+06    1.4479015E-08    1.4597284E-08    1.0132555E+06    4.7378204E-08    1.0132698E+06
   -3.16   600.000   -4.529E+00    1.1034787E+06    1.4445131E-08    1.4581598E-08    1.1034787E+06    4.7705764E-08    1.1034905E+06
   -3.15   600.000   -4.583E+00    1.1962322E+06    1.4371622E-08    1.4528678E-08    1.1962322E+06    4.7743561E-08    1.1962419E+06
   -3.14   600.000   -4.637E+00    1.2904582E+06    1.4236756E-08    1.4416499E-08    1.2904582E+06    4.7416435E-08    1.2904662E+06
   -3.13   600.000   -4.692E+00    1.3851629E+06    1.4028116E-08    1.4232068E-08    1.3851629E+06    4.6683836E-08    1.3851695E+06
   -3.12   600.000   -4.745E+00    1.4794760E+06    1.3742905E-08    1.3971725E-08    1.4794760E+06    4.5542435E-08    1.4794815E+06
   -3.11   600.000   -4.798E+00    1.5727188E+06    1.3387230E-08    1.3640470E-08    1.5727188E+06    4.4024619E-08    1.5727233E+06
   -3.10   600.000   -4.850E+00    1.6644746E+06    1.2974537E-08    1.3250477E-08    1.6644746E+06    4.2193074E-08    1.6644783E+06
   -3.09   600.000   -4.900E+00    1.7546588E+06    1.2523480E-08    1.2819072E-08    1.7546588E+06    4.0132456E-08    1.7546619E+06
   -3.08   600.000   -4.948E+00    1.8435754E+06    1.2055602E-08    1.2366541E-08    1.8435754E+06    3.7939658E-08    1.8435779E+06
   -3.07   600.000   -4.994E+00    1.9319439E+06    1.1593169E-08    1.1914077E-08    1.9319439E+06    3.5714276E-08    1.9319460E+06
   -3.06   600.000   -5.039E+00    2.0208807E+06    1.1157415E-08    1.1482129E-08    2.0208807E+06    3.3550557E-08    2.0208824E+06
   -3.05   600.000   -5.082E+00    2.1118177E+06    1.0767301E-08    1.1089222E-08    2.1118177E+06    3.1531473E-08    2.1118191E+06
   -3.04   600.000   -5.123E+00    2.2063549E+06    1.0438731E-08    1.0751222E-08    2.2063549E+06    2.9724988E-08    2.2063560E+06
   -3.03   600.000   -5.162E+00    2.3060561E+06    1.0184079E-08    1.0480848E-08    2.3060561E+06    2.8182067E-08    2.3060570E+06
   -3.02   600.000   -5.200E+00    2.4122141E+06    1.0011801E-08    1.0287257E-08    2.4122141E+06    2.6935862E-08    2.4122149E+06
   -3.01   600.000   -5.236E+00    2.5256210E+06    9.9259933E-09    1.0175548E-08    2.5256210E+06    2.6001499E-08    2.5256216E+06
   -3.00   600.000   -5.271E+00    2.6463807E+06    9.9258471E-09    1.0146147E-08    2.6463807E+06    2.5376163E-08    2.6463812E+06
   -2.99   600.000   -5.305E+00    2.7737915E+06    1.0005077E-08    1.0194160E-08    2.7737915E+06    2.5039415E-08    2.7737919E+06
   -2.98   600.000   -5.338E+00    2.9063099E+06    1.0151490E-08    1.0308864E-08    2.9063099E+06    2.4953962E-08    2.9063103E+06
   -2.97   600.000   -5.370E+00    3.0415943E+06    1.0346935E-08    1.0473574E-08    3.0415943E+06    2.5067220E-08    3.0415946E+06
   -2.96   600.000   -5.402E+00    3.1766183E+06    1.0567865E-08    1.0666128E-08    3.1766183E+06    2.5314107E-08    3.1766185E+06
   -2.95   600.000   -5.434E+00    3.3078436E+06    1.0786725E-08    1.0860186E-08    3.3078436E+06    2.5621371E-08    3.3078438E+06
   -2.94   600.000   -5.465E+00    3.4314486E+06    1.0974208E-08    1.1027421E-08    3.4314486E+06    2.5913498E-08    3.4314488E+06
   -2.93   600.000   -5.496E+00    3.5436085E+06    1.1102254E-08    1.1140471E-08    3.5436085E+06    2.6119795E-08    3.5436087E+06
   -2.92   600.000   -5.527E+00    3.6408163E+06    1.1147387E-08    1.1176243E-08    3.6408163E+06    2.6181766E-08    3.6408164E+06
   -2.91   600.000   -5.557E+00    3.7202203E+06    1.1093770E-08    1.1118980E-08    3.7202203E+06    2.6059496E-08    3.7202204E+06
   -2.90   600.000   -5.588E+00    3.7799353E+06    1.0935302E-08    1.0962380E-08    3.7799353E+06    2.5735702E-08    3.7799354E+06
   -2.89   600.000   -5.618E+00    3.8192773E+06    1.0676242E-08    1.0710252E-08    3.8192773E+06    2.5216515E-08    3.8192773E+06
   -2.88   600.000   -5.648E+00    3.8388778E+06    1.0330186E-08    1.0375530E-08    3.8388778E+06    2.4528793E-08    3.8388778E+06
   -2.87   600.000   -5.678E+00    3.8406577E+06    9.9177096E-09    9.9779341E-09    3.8406577E+06    2.3714663E-08    3.8406578E+06
   -2.86   600.000   -5.708E+00    3.8276703E+06    9.4632663E-09    9.5408975E-09    3.8276703E+06    2.2824654E-08    3.8276703E+06
   -2.85   600.000   -5.738E+00    3.8038499E+06    8.9921165E-09    9.0885096E-09    3.8038499E+06    2.1910985E-08    3.8038499E+06
   -2.84   600.000   -5.767E+00    3.7737189E+06    8.5278842E-09    8.6431084E-09    3.7737189E+06    2.1022291E-08    3.7737189E+06
   -2.83   600.000   -5.796E+00    3.7420998E+06    8.0910759E-09    8.2238495E-09    3.7420998E+06    2.0200466E-08    3.7420998E+06
   -2.82   600.000   -5.825E+00    3.7138671E+06    7.6985748E-09    7.8462677E-09    3.7138671E+06    1.9479646E-08    3.7138671E+06
   -2.81   600.000   -5.854E+00    3.6937491E+06    7.3638897E-09    7.5226014E-09    3.6937491E+06    1.8886859E-08    3.6937491E+06
   -2.80   600.000   -5.883E+00    3.6861766E+06    7.0978367E-09    7.2625467E-09    3.6861766E+06    1.8443642E-08    3.6861766E+06
   -2.79   600.000   -5.911E+00    3.6951614E+06    6.9093452E-09    7.0741188E-09    3.6951614E+06    1.8167937E-08    3.6951614E+06
   -2.78   600.000   -5.940E+00    3.7241904E+06    6.8061584E-09    6.9643930E-09    3.7241904E+06    1.8075789E-08    3.7241904E+06
   -2.77   600.000   -5.968E+00    3.7761252E+06    6.7952982E-09    6.9399984E-09    3.7761252E+06    1.8182545E-08    3.7761252E+06
   -2.76   600.000   -5.997E+00    3.8531006E+06    6.8832426E-09    7.0073222E-09    3.8531006E+06    1.8503465E-08    3.8531006E+06
   -2.75   600.000   -6.026E+00    3.9564235E+06    7.0758141E-09    7.1724275E-09    3.9564235E+06    1.9053694E-08    3.9564235E+06
   -2.74   600.000   -6.055E+00    4.0864752E+06    7.3778045E-09    7.4407104E-09    4.0864752E+06    1.9847626E-08    4.0864752E+06
   -2.73   600.000   -6.084E+00    4.2426273E+06    7.7923856E-09    7.8163336E-09    4.2426273E+06    2.0897648E-08    4.2426273E+06
   -2.72   600.000   -6.113E+00    4.4231880E+06    8.3203723E-09    8.3014888E-09    4.4231880E+06    2.2212324E-08    4.4231880E+06
   -2.71   600.000   -6.143E+00    4.6254013E+06    8.9594318E-09    8.8955684E-09    4.6254013E+06    2.3794148E-08    4.6254013E+06
   -2.70   600.000   -6.173E+00    4.8455222E+06    9.7033450E-09    9.5943435E-09    4.8455222E+06    2.5637076E-08    4.8455222E+06
   -2.69   600.000   -6.203E+00    5.0789778E+06    1.0541437E-08    1.0389264E-08    5.0789778E+06    2.7724159E-08    5.0789778E+06
   -2.68   600.000   -6.233E+00    5.3206057E+06    1.1458286E-08    1.1266994E-08    5.3206057E+06    3.0025649E-08    5.3206057E+06
   -2.67   600.000   -6.264E+00    5.5649403E+06    1.2433798E-08    1.2209299E-08    5.5649403E+06    3.2497987E-08    5.5649403E+06
   -2.66   600.000   -6.295E+00    5.8065048E+06    1.3443723E-08    1.3193367E-08    5.8065048E+06    3.5084042E-08    5.8065048E+06
   -2.65   600.000   -6.326E+00    6.0400707E+06    1.4460655E-08    1.4192655E-08    6.0400707E+06    3.7714907E-08    6.0400707E+06
   -2.64   600.000   -6.358E+00    6.2608638E+06    1.5455513E-08    1.5178293E-08    6.2608638E+06    4.0313413E-08    6.2608638E+06
   -2.63   600.000   -6.389E+00    6.4647157E+06    1.6399460E-08    1.6121018E-08    6.4647157E+06    4.2799271E-08    6.4647157E+06
   -2.62   600.000   -6.421E+00    6.6481745E+06    1.7266131E-08    1.6993524E-08    6.6481745E+06    4.5095457E-08    6.6481745E+06
   -2.61   600.000   -6.452E+00    6.8085845E+06    1.8033940E-08    1.7772960E-08    6.8085845E+06    4.7135040E-08    6.8085845E+06
   -2.60   600.000   -6.483E+00    6.9441331E+06    1.8688084E-08    1.8443169E-08    6.9441331E+06    4.8867264E-08    6.9441331E+06
   -2.59   600.000   -6.515E+00    7.0538414E+06    1.9221824E-08    1.8996175E-08    7.0538414E+06    5.0261506E-08    7.0538414E+06
   -2.58   600.000   -6.545E+00    7.1374782E+06    1.9636620E-08    1.9432463E-08    7.1374782E+06    5.1307895E-08    7.1374782E+06
   -2.57   600.000   -6.576E+00    7.1953900E+06    1.9940927E-08    1.9759812E-08    7.1953900E+06    5.2014084E-08    7.1953900E+06
   -2.56   600.000   -6.606E+00    7.2282818E+06    2.0147844E-08    1.9990886E-08    7.2282818E+06    5.2398768E-08    7.2282818E+06
   -2.55   600.000   -6.635E+00    7.2370159E+06    2.0272160E-08    2.0140154E-08    7.2370159E+06    5.2483706E-08    7.2370159E+06
   -2.54   600.000   -6.664E+00    7.2225103E+06    2.0327667E-08    2.0221024E-08    7.2225103E+06    5.2286673E-08    7.2225103E+06
   -2.53   600.000   -6.693E+00    7.1857892E+06    2.0325509E-08    2.0244040E-08    7.1857892E+06    5.1817648E-08    7.1857892E+06
   -2.52   600.000   -6.721E+00    7.1281792E+06    2.0274064E-08    2.0216660E-08    7.1281792E+06    5.1079474E-08    7.1281792E+06
   -2.51   600.000   -6.748E+00    7.0515735E+06    2.0180269E-08    2.0144550E-08    7.0515735E+06    5.0072682E-08    7.0515735E+06
   -2.50   600.000   -6.775E+00    6.9586509E+06    2.0051829E-08    2.0033848E-08    6.9586509E+06    4.8802663E-08    6.9586509E+06
   -2.49   600.000   -6.801E+00    6.8529420E+06    1.9899406E-08    1.9893482E-08    6.8529420E+06    4.7286545E-08    6.8529420E+06
   -2.48   600.000   -6.827E+00    6.7386926E+06    1.9737940E-08    1.9736676E-08    6.7386926E+06    4.5557326E-08    6.7386926E+06
   -2.47   600.000   -6.852E+00    6.6205544E+06    1.9586561E-08    1.9581069E-08    6.6205544E+06    4.3663849E-08    6.6205544E+06
   -2.46   600.000   -6.877E+00    6.5031907E+06    1.9467038E-08    1.9447364E-08    6.5031907E+06    4.1666665E-08    6.5031907E+06
   -2.45   600.000   -6.901E+00    6.3909143E+06    1.9401105E-08    1.9356818E-08    6.3909143E+06    3.9631119E-08    6.3909143E+06
   -2.44   600.000   -6.925E+00    6.2874478E+06    1.9407231E-08    1.9328106E-08    6.2874478E+06    3.7619551E-08    6.2874478E+06
   -2.43   600.000   -6.948E+00    6.1958530E+06    1.9497394E-08    1.9374123E-08    6.1958530E+06    3.5684442E-08    6.1958530E+06
   -2.42   600.000   -6.971E+00    6.1186228E+06    1.9674341E-08    1.9499161E-08    6.1186228E+06    3.3863723E-08    6.1186228E+06
   -2.41   600.000   -6.993E+00    6.0578905E+06    1.9929624E-08    1.9696810E-08    6.0578905E+06    3.2178703E-08    6.0578905E+06
   -2.40   600.000   -7.015E+00    6.0156927E+06    2.0242684E-08    1.9948827E-08    6.0156927E+06    3.0634469E-08    6.0156927E+06
   -2.39   600.000   -7.037E+00    5.9942101E+06    2.0581195E-08    2.0225245E-08    5.9942101E+06    2.9222225E-08    5.9942101E+06
   -2.38   600.000   -7.058E+00    5.9959199E+06    2.0902862E-08    2.0485933E-08    5.9959199E+06    2.7922884E-08    5.9959199E+06
   -2.37   600.000   -7.078E+00    6.0236064E+06    2.1158792E-08    2.0683755E-08    6.0236064E+06    2.6711286E-08    6.0236064E+06
   -2.36   600.000   -7.099E+00    6.0802097E+06    2.1298337E-08    2.0769245E-08    6.0802097E+06    2.5560497E-08    6.0802097E+06
   -2.35   600.000   -7.119E+00    6.1685384E+06    2.1275000E-08    2.0696409E-08    6.1685384E+06    2.4445809E-08    6.1685384E+06
   -2.34   600.000   -7.139E+00    6.2909042E+06    2.1052630E-08    2.0428884E-08    6.2909042E+06    2.3348093E-08    6.2909042E+06
   -2.33   600.000   -7.159E+00    6.4487605E+06    2.0610833E-08    1.9945363E-08    6.4487605E+06    2.2256229E-08    6.4487605E+06
   -2.32   600.000   -7.179E+00    6.6424135E+06    1.9948468E-08    1.9243178E-08    6.6424135E+06    2.1168344E-08    6.6424135E+06
   -2.31   600.000   -7.199E+00    6.8708404E+06    1.9084403E-08    1.8339170E-08    6.8708404E+06    2.0091691E-08    6.8708404E+06
   -2.30   600.000   -7.219E+00    7.1316131E+06    1.8055249E-08    1.7267593E-08    7.1316131E+06    1.9041174E-08    7.1316131E+06
   -2.29   600.000   -7.240E+00    7.4208931E+06    1.6910551E-08    1.6075499E-08    7.4208931E+06    1.8036770E-08    7.4208931E+06
   -2.28   600.000   -7.261E+00    7.7334604E+06    1.5706439E-08    1.4816631E-08    7.7334604E+06    1.7100308E-08    7.7334604E+06
   -2.27   600.000   -7.283E+00    8.0627552E+06    1.4499029E-08    1.3545088E-08    8.0627552E+06    1.6252170E-08    8.0627552E+06
   -2.26   600.000   -7.305E+00    8.4009392E+06    1.3338689E-08    1.2309883E-08    8.4009392E+06    1.5508422E-08    8.4009392E+06
   -2.25   600.000   -7.327E+00    8.7390083E+06    1.2265920E-08    1.1151118E-08    8.7390083E+06    1.4878755E-08    8.7390083E+06
   -2.24   600.000   -7.350E+00    9.0669952E+06    1.1309125E-08    1.0097988E-08    9.0669952E+06    1.4365392E-08    9.0669952E+06
   -2.23   600.000   -7.373E+00    9.3742901E+06    1.0484117E-08    9.1684243E-09    9.3742901E+06    1.3962937E-08    9.3742901E+06
   -2.22   600.000   -7.396E+00    9.6500775E+06    9.7949879E-09    8.3699391E-09    9.6500775E+06    1.3658971E-08    9.6500775E+06
   -2.21   600.000   -7.420E+00    9.8838662E+06    9.2358699E-09    7.7011609E-09    9.8838662E+06    1.3435132E-08    9.8838662E+06
   -2.20   600.000   -7.444E+00    1.0066072E+07    8.7931266E-09    7.1536257E-09    1.0066072E+07    1.3268434E-08    1.0066072E+07
   -2.19   600.000   -7.468E+00    1.0188611E+07    8.4476479E-09    6.7135415E-09    1.0188611E+07    1.3132635E-08    1.0188611E+07
   -2.18   600.000   -7.492E+00    1.0245477E+07    8.1770373E-09    6.3634094E-09    1.0245477E+07    1.2999642E-08    1.0245477E+07
   -2.17   600.000   -7.516E+00    1.0233267E+07    7.9576201E-09    6.0835250E-09    1.0233267E+07    1.2841002E-08    1.0233267E+07
   -2.16   600.000   -7.539E+00    1.0151625E+07    7.7662777E-09    5.8534384E-09    1.0151625E+07    1.2629604E-08    1.0151625E+07
   -2.15   600.000   -7.562E+00    1.0003557E+07    7.5821261E-09    5.6534259E-09    1.0003557E+07    1.2341614E-08    1.0003557E+07
   -2.14   600.000   -7.584E+00    9.7955505E+06    7.3880009E-09    5.4659364E-09    9.7955505E+06    1.1958507E-08    9.7955505E+06
   -2.13   600.000   -7.606E+00    9.5374374E+06    7.1716287E-09    5.2768670E-09    9.5374374E+06    1.1468924E-08    9.5374374E+06
   -2.12   600.000   -7.627E+00    9.2419396E+06    6.9263083E-09    5.0764595E-09    9.2419396E+06    1.0869939E-08    9.2419396E+06
   -2.11   600.000   -7.647E+00    8.9239040E+06    6.6509430E-09    4.8596289E-09    8.9239040E+06    1.0167439E-08    8.9239040E+06
   -2.10   600.000   -7.666E+00    8.5992703E+06    6.3493635E-09    4.6256335E-09    8.5992703E+06    9.3754325E-09    8.5992703E+06
   -2.09   600.000   -7.685E+00    8.2838813E+06    6.0290304E-09    4.3771456E-09    8.2838813E+06    8.5144008E-09    8.2838813E+06
   -2.08   600.000   -7.703E+00    7.9922765E+06    5.6993470E-09    4.1189185E-09    7.9922765E+06    7.6089888E-09    7.9922765E+06
   -2.07   600.000   -7.721E+00    7.7366205E+06    5.3699004E-09    3.8563282E-09    7.7366205E+06    6.6854565E-09    7.7366205E+06
   -2.06   600.000   -7.738E+00    7.5258957E+06    5.0489494E-09    3.5940793E-09    7.5258957E+06    5.7693030E-09    7.5258957E+06
   -2.05   600.000   -7.754E+00    7.3654529E+06    4.7424077E-09    3.3353034E-09    7.3654529E+06    4.8833663E-09    7.3654529E+06
   -2.04   600.000   -7.770E+00    7.2569654E+06    4.4534532E-09    3.0811785E-09    7.2569654E+06    4.0465522E-09    7.2569654E+06
   -2.03   600.000   -7.786E+00    7.1987763E+06    4.1827546E-09    2.8310790E-09    7.1987763E+06    3.2732058E-09    7.1987763E+06
   -2.02   600.000   -7.802E+00    7.1865767E+06    3.9291874E-09    2.5831578E-09    7.1865767E+06    2.5730366E-09    7.1865767E+06
   -2.01   600.000   -7.817E+00    7.2143055E+06    3.6908230E-09    2.3351789E-09    7.2143055E+06    1.9514485E-09    7.2143055E+06
   -2.00   600.000   -7.833E+00    7.2751300E+06    3.4659320E-09    2.0853791E-09    7.2751300E+06    1.4101138E-09    7.2751300E+06
   -1.99   600.000   -7.848E+00    7.3623559E+06    3.2537669E-09    1.8331468E-09    7.3623559E+06    9.4764837E-10    7.3623559E+06
   -1.98   600.000   -7.864E+00    7.4701291E+06    3.0549562E-09    1.5793683E-09    7.4701291E+06    5.6028251E-10    7.4701291E+06
   -1.97   600.000   -7.879E+00    7.5938320E+06    2.8714500E-09    1.3263852E-09    7.5938320E+06    2.4248099E-10    7.5938320E+06
   -1.96   600.000   -7.895E+00    7.7301426E+06    2.7060734E-09    1.0776125E-09    7.7301426E+06   -1.2489612E-11    7.7301426E+06
   -1.95   600.000   -7.910E+00    7.8767948E+06    2.5618351E-09    8.3694664E-10    7.8767948E+06   -2.1201791E-10    7.8767948E+06
   -1.94   600.000   -7.926E+00    8.0321515E+06    2.4411926E-09    6.0813381E-10    8.0321515E+06   -3.6360743E-10    8.0321515E+06
   -1.93   600.000   -7.942E+00    8.1947366E+06    2.3454701E-09    3.9425513E-10    8.1947366E+06   -4.7435147E-10    8.1947366E+06
   -1.92   600.000   -7.958E+00    8.3628729E+06    2.2745769E-09    1.9743851E-10    8.3628729E+06   -5.5047783E-10    8.3628729E+06
   -1.91   600.000   -7.973E+00    8.5345237E+06    2.2270853E-09    1.8834698E-11    8.5345237E+06   -5.9704180E-10    8.5345237E+06
   -1.90   600.000   -7.989E+00    8.7073637E+06    2.2006348E-09   -1.4117418E-10    8.7073637E+06   -6.1783199E-10    8.7073637E+06
   -1.89   600.000   -8.005E+00    8.8790275E+06    2.1925384E-09   -2.8261838E-10    8.8790275E+06   -6.1550260E-10    8.8790275E+06
   -1.88   600.000   -8.021E+00    9.0474314E+06    2.2004212E-09   -4.0554678E-10    9.0474314E+06   -5.9187826E-10    9.0474314E+06
   -1.87   600.000   -8.037E+00    9.2110458E+06    2.2227173E-09   -5.0969910E-10    9.2110458E+06   -5.4832243E-10    9.2110458E+06
   -1.86   600.000   -8.054E+00    9.3690182E+06    2.2589013E-09   -5.9431290E-10    9.3690182E+06   -4.8604314E-10    9.3690182E+06
   -1.85   600.000   -8.070E+00    9.5210921E+06    2.3094162E-09   -6.5808222E-10    9.5210921E+06   -4.0623645E-10    9.5210921E+06
   -1.84   600.000   -8.086E+00    9.6673194E+06    2.3753522E-09   -6.9923225E-10    9.6673194E+06   -3.1002727E-10    9.6673194E+06
   -1.83   600.000   -8.103E+00    9.8076190E+06    2.4580058E-09   -7.1563979E-10    9.8076190E+06   -1.9823519E-10    9.8076190E+06
   -1.82   600.000   -8.119E+00    9.9412746E+06    2.5584766E-09   -7.0492645E-10    9.9412746E+06   -7.1046456E-11    9.9412746E+06
   -1.81   600.000   -8.136E+00    1.0066497E+07    2.6774426E-09   -6.6448287E-10    1.0066497E+07    7.2303115E-11    1.0066497E+07
   -1.80   600.000   -8.153E+00    1.0180186E+07    2.8151886E-09   -5.9143504E-10    1.0180186E+07    2.3373651E-10    1.0180186E+07
   -1.79   600.000   -8.170E+00    1.0278011E+07    2.9718802E-09   -4.8261293E-10    1.0278011E+07    4.1636838E-10    1.0278011E+07
   -1.78   600.000   -8.187E+00    1.0354839E+07    3.1479975E-09   -3.3460227E-10    1.0354839E+07    6.2433828E-10    1.0354839E+07
   -1.77   600.000   -8.204E+00    1.0405487E+07    3.3447887E-09   -1.4393924E-10    1.0405487E+07    8.6246438E-10    1.0405487E+07
   -1.76   600.000   -8.221E+00    1.0425610E+07    3.5645986E-09    9.2545675E-11    1.0425610E+07    1.1357741E-09    1.0425610E+07
   -1.75   600.000   -8.238E+00    1.0412544E+07    3.8109568E-09    3.7728857E-10    1.0412544E+07    1.4489898E-09    1.0412544E+07
   -1.74   600.000   -8.256E+00    1.0365874E+07    4.0883730E-09    7.1155110E-10    1.0365874E+07    1.8060514E-09    1.0365874E+07
   -1.73   600.000   -8.273E+00    1.0287588E+07    4.4018561E-09    1.0950739E-09    1.0287588E+07    2.2097377E-09    1.0287588E+07
   -1.72   600.000   -8.290E+00    1.0181787E+07    4.7562282E-09    1.5258904E-09    1.0181787E+07    2.6614216E-09    1.0181787E+07
   -1.71   600.000   -8.307E+00    1.0054006E+07    5.1553403E-09    2.0003201E-09    1.0054006E+07    3.1609575E-09    1.0054006E+07
   -1.70   600.000   -8.324E+00    9.9102955E+06    5.6013029E-09    2.5131195E-09    9.9102955E+06    3.7066755E-09    9.9102957E+06
   -1.69   600.000   -8.340E+00    9.7562583E+06    6.0938388E-09    3.0577393E-09    9.7562583E+06    4.2954425E-09    9.7562586E+06
   -1.68   600.000   -8.357E+00    9.5962419E+06    6.6298447E-09    3.6266310E-09    9.5962419E+06    4.9227420E-09    9.5962423E+06
   -1.67   600.000   -8.373E+00    9.4328653E+06    7.2032207E-09    4.2115390E-09    9.4328653E+06    5.5827255E-09    9.4328657E+06
   -1.66   600.000   -8.389E+00    9.2669853E+06    7.8049801E-09    4.8037204E-09    9.2669853E+06    6.2681784E-09    9.2669858E+06
   -1.65   600.000   -8.404E+00    9.0981061E+06    8.4236001E-09    5.3940304E-09    9.0981061E+06    6.9703500E-09    9.0981067E+06
   -1.64   600.000   -8.419E+00    8.9251221E+06    9.0455224E-09    5.9728330E-09    8.9251221E+06    7.6786169E-09    8.9251229E+06
   -1.63   600.000   -8.434E+00    8.7472000E+06    9.6557034E-09    6.5297441E-09    8.7472000E+06    8.3800244E-09    8.7472009E+06
   -1.62   600.000   -8.449E+00    8.5645775E+06    1.0238157E-08    7.0533057E-09    8.5645775E+06    9.0588662E-09    8.5645786E+06
   -1.61   600.000   -8.463E+00    8.3790954E+06    1.0776522E-08    7.5307911E-09    8.3790954E+06    9.6965948E-09    8.3790968E+06
   -1.60   600.000   -8.477E+00    8.1943669E+06    1.1254794E-08    7.9484061E-09    8.1943669E+06    1.0272427E-08    8.1943685E+06
   -1.59   600.000   -8.490E+00    8.0155888E+06    1.1658359E-08    8.2921063E-09    8.0155888E+06    1.0764931E-08    8.0155907E+06
   -1.58   600.000   -8.503E+00    7.8490801E+06    1.1975403E-08    8.5490841E-09    7.8490801E+06    1.1154617E-08    7.8490824E+06
   -1.57   600.000   -8.516E+00    7.7016684E+06    1.2198558E-08    8.7097160E-09    7.7016684E+06    1.1427177E-08    7.7016712E+06
   -1.56   600.000   -8.528E+00    7.5800435E+06    1.2326416E-08    8.7695081E-09    7.5800435E+06    1.1576634E-08    7.5800470E+06
   -1.55   600.000   -8.539E+00    7.4901727E+06    1.2364423E-08    8.7304462E-09    7.4901727E+06    1.1607465E-08    7.4901770E+06
   -1.54   600.000   -8.551E+00    7.4368432E+06    1.2324707E-08    8.6012363E-09    7.4368432E+06    1.1534920E-08    7.4368483E+06
   -1.53   600.000   -8.562E+00    7.4233705E+06    1.2224637E-08    8.3961887E-09    7.4233705E+06    1.1383136E-08    7.4233767E+06
   -1.52   600.000   -8.573E+00    7.4514906E+06    1.2084280E-08    8.1328784E-09    7.4514906E+06    1.1181270E-08    7.4514981E+06
   -1.51   600.000   -8.584E+00    7.5214225E+06    1.1923212E-08    7.8290574E-09    7.5214225E+06    1.0958400E-08    7.5214316E+06
   -1.50   600.000   -8.595E+00    7.6320565E+06    1.1757345E-08    7.4994961E-09    7.6320565E+06    1.0738269E-08    7.6320676E+06
   -1.49   600.000   -8.606E+00    7.7811936E+06    1.1596420E-08    7.1534564E-09    7.7811936E+06    1.0535007E-08    7.7812071E+06
   -1.48   600.000   -8.618E+00    7.9657456E+06    1.1442665E-08    6.7933557E-09    7.9657456E+06    1.0350736E-08    7.9657619E+06
   -1.47   600.000   -8.629E+00    8.1818262E+06    1.1290872E-08    6.4149438E-09    8.1818262E+06    1.0175592E-08    8.1818460E+06
   -1.46   600.000   -8.641E+00    8.4247073E+06    1.1129910E-08    6.0090156E-09    8.4247073E+06    9.9902267E-09    8.4247314E+06
   -1.45   600.000   -8.653E+00    8.6886715E+06    1.0945390E-08    5.5643730E-09    8.6886715E+06    9.7703274E-09    8.6887007E+06
   -1.44   600.000   -8.665E+00    8.9668381E+06    1.0723011E-08    5.0714735E-09    8.9668381E+06    9.4922736E-09    8.9668735E+06
   -1.43   600.000   -8.678E+00    9.2510587E+06    1.0451926E-08    4.5260153E-09    9.2510587E+06    9.1387352E-09    9.2511016E+06
   -1.42   600.000   -8.691E+00    9.5319674E+06    1.0127470E-08    3.9316781E-09    9.5319674E+06    8.7029924E-09    9.5320194E+06
   -1.41   600.000   -8.705E+00    9.7992503E+06    9.7527172E-09    3.3014083E-09    9.7992503E+06    8.1910366E-09    9.7993135E+06
   -1.40   600.000   -8.719E+00    1.0042163E+07    9.3386326E-09    2.6569692E-09    1.0042163E+07    7.6210656E-09    1.0042240E+07
   -1.39   600.000   -8.733E+00    1.0250295E+07    8.9029304E-09    2.0268916E-09    1.0250295E+07    7.0206488E-09    1.0250388E+07
   -1.38   600.000   -8.748E+00    1.0414516E+07    8.4680232E-09    1.4433176E-09    1.0414516E+07    6.4223955E-09    1.0414629E+07
   -1.37   600.000   -8.763E+00    1.0528002E+07    8.0585879E-09    9.3842653E-10    1.0528002E+07    5.8592439E-09    1.0528138E+07
   -1.36   600.000   -8.779E+00    1.0587146E+07    7.6992196E-09    5.4113180E-10    1.0587146E+07    5.3604202E-09    1.0587312E+07
   -1.35   600.000   -8.794E+00    1.0592177E+07    7.4124863E-09    2.7456177E-10    1.0592177E+07    4.9487691E-09    1.0592378E+07
   -1.34   600.000   -8.810E+00    1.0547297E+07    7.2175044E-09    1.5458114E-10    1.0547297E+07    4.6396767E-09    1.0547541E+07
   -1.33   600.000   -8.825E+00    1.0460272E+07    7.1290089E-09    1.8934627E-10    1.0460272E+07    4.4413604E-09    1.0460567E+07
   -1.32   600.000   -8.840E+00    1.0341523E+07    7.1568161E-09    3.7968898E-10    1.0341523E+07    4.3560168E-09    1.0341881E+07
   -1.31   600.000   -8.855E+00    1.0202876E+07    7.3055649E-09    7.2001601E-10    1.0202876E+07    4.3812428E-09    1.0203309E+07
   -1.30   600.000   -8.870E+00    1.0056193E+07    7.5746396E-09    1.1993933E-09    1.0056193E+07    4.5112448E-09    1.0056717E+07
   -1.29   600.000   -8.885E+00    9.9121224E+06    7.9582027E-09    1.8025383E-09    9.9121224E+06    4.7375473E-09    9.9127573E+06
   -1.28   600.000   -8.899E+00    9.7791252E+06    8.4452904E-09    2.5105465E-09    9.7791252E+06    5.0491336E-09    9.7798933E+06
   -1.27   600.000   -8.913E+00    9.6628540E+06    9.0199552E-09    3.3013039E-09    9.6628540E+06    5.4321353E-09    9.6637825E+06
   -1.26   600.000   -8.927E+00    9.5658844E+06    9.6614890E-09    4.1496749E-09    9.5658844E+06    5.8693265E-09    9.5670060E+06
   -1.25   600.000   -8.940E+00    9.4877303E+06    1.0344822E-08    5.0276703E-09    9.4877303E+06    6.3397616E-09    9.4890839E+06
   -1.24   600.000   -8.953E+00    9.4250680E+06    1.1041245E-08    5.9048765E-09    9.4250680E+06    6.8189212E-09    9.4266995E+06
   -1.23   600.000   -8.966E+00    9.3721241E+06    1.1719637E-08    6.7494210E-09    9.3721241E+06    7.2796623E-09    9.3740881E+06
   -1.22   600.000   -8.979E+00    9.3212304E+06    1.2348296E-08    7.5296399E-09    9.3212304E+06    7.6941063E-09    9.3235907E+06
   -1.21   600.000   -8.992E+00    9.2635782E+06    1.2897369E-08    8.2164046E-09    9.2635782E+06    8.0363234E-09    9.2664094E+06
   -1.20   600.000   -9.004E+00    9.1901921E+06    1.3341628E-08    8.7857985E-09    9.1901921E+06    8.2853715E-09    9.1935799E+06
   -1.19   600.000   -9.017E+00    9.0930698E+06    1.3663132E-08    9.2216212E-09    9.0930698E+06    8.4280098E-09    9.0971124E+06
   -1.18   600.000   -9.029E+00    8.9663475E+06    1.3853235E-08    9.5171213E-09    8.9663475E+06    8.4603721E-09    8.9711555E+06
   -1.17   600.000   -9.041E+00    8.8072786E+06    1.3913439E-08    9.6754951E-09    8.8072786E+06    8.3881074E-09    8.8129745E+06
   -1.16   600.000   -9.053E+00    8.6168180E+06    1.3854871E-08    9.7089993E-09    8.6168180E+06    8.2249252E-09    8.6235346E+06
   -1.15   600.000   -9.065E+00    8.3996793E+06    1.3696491E-08    9.6368924E-09    8.3996793E+06    7.9899619E-09    8.4075570E+06
   -1.14   600.000   -9.077E+00    8.1638577E+06    1.3462455E-08    9.4827045E-09    8.1638577E+06    7.7047083E-09    8.1730400E+06
   -1.13   600.000   -9.088E+00    7.9197364E+06    1.3179196E-08    9.2714262E-09    7.9197364E+06    7.3902762E-09    7.9303628E+06
   -1.12   600.000   -9.099E+00    7.6789731E+06    1.2872766E-08    9.0271157E-09    7.6789731E+06    7.0655387E-09    7.6911714E+06
   -1.11   600.000   -9.110E+00    7.4533825E+06    1.2566810E-08    8.7712145E-09    7.4533825E+06    6.7463029E-09    7.4672587E+06
   -1.10   600.000   -9.120E+00    7.2539841E+06    1.2281358E-08    8.5216390E-09    7.2539841E+06    6.4453326E-09    7.2696119E+06
   -1.09   600.000   -9.130E+00    7.0903098E+06    1.2032403E-08    8.2925475E-09    7.0903098E+06    6.1728671E-09    7.1077213E+06
   -1.08   600.000   -9.140E+00    6.9699816E+06    1.1832111E-08    8.0945859E-09    6.9699816E+06    5.9372863E-09    6.9891609E+06
   -1.07   600.000   -9.150E+00    6.8985044E+06    1.1689384E-08    7.9353766E-09    6.8985044E+06    5.7456824E-09    6.9193861E+06
   -1.06   600.000   -9.160E+00    6.8791808E+06    1.1610481E-08    7.8200175E-09    6.8791808E+06    5.6042355E-09    6.9016561E+06
   -1.05   600.000   -9.170E+00    6.9130575E+06    1.1599382E-08    7.7513984E-09    6.9130575E+06    5.5183751E-09    6.9369883E+06
   -1.04   600.000   -9.180E+00    6.9988478E+06    1.1657741E-08    7.7302290E-09    6.9988478E+06    5.4927537E-09    7.0240877E+06
   -1.03   600.000   -9.190E+00    7.1328318E+06    1.1784409E-08    7.7547978E-09    7.1328318E+06    5.5310687E-09    7.1592536E+06
   -1.02   600.000   -9.200E+00    7.3088036E+06    1.1974732E-08    7.8206189E-09    7.3088036E+06    5.6357750E-09    7.3363272E+06
   -1.01   600.000   -9.210E+00    7.5181669E+06    1.2219987E-08    7.9202243E-09    7.5181669E+06    5.8077467E-09    7.5467855E+06
   -1.00   600.000   -9.220E+00    7.7502814E+06    1.2507332E-08    8.0433734E-09    7.7502814E+06    6.0459606E-09    7.7800813E+06
   -0.99   600.000   -9.231E+00    7.9931086E+06    1.2820569E-08    8.1778639E-09    7.9931086E+06    6.3472974E-09    8.0242788E+06
   -0.98   600.000   -9.242E+00    8.2341193E+06    1.3141747E-08    8.3109606E-09    8.2341193E+06    6.7065599E-09    8.2669516E+06
   -0.97   600.000   -9.252E+00    8.4613420E+06    1.3453402E-08    8.4312496E-09    8.4613420E+06    7.1167930E-09    8.4962189E+06
   -0.96   600.000   -9.264E+00    8.6643632E+06    1.3740994E-08    8.5305610E-09    8.6643632E+06    7.5699356E-09    8.7017361E+06
   -0.95   600.000   -9.275E+00    8.8350864E+06    1.3994977E-08    8.6055195E-09    8.8350864E+06    8.0577457E-09    8.8754447E+06
   -0.94   600.000   -9.286E+00    8.9681061E+06    1.4212005E-08    8.6583126E-09    8.9681061E+06    8.5728194E-09    9.0119372E+06
   -0.93   600.000   -9.298E+00    9.0606528E+06    1.4394949E-08    8.6964046E-09    9.0606528E+06    9.1094199E-09    9.1083962E+06
   -0.92   600.000   -9.309E+00    9.1121871E+06    1.4551655E-08    8.7311312E-09    9.1121871E+06    9.6637874E-09    9.1641835E+06
   -0.91   600.000   -9.321E+00    9.1238075E+06    1.4692673E-08    8.7753439E-09    9.1238075E+06    1.0233654E-08    9.1802476E+06
   -0.90   600.000   -9.333E+00    9.0976692E+06    1.4828382E-08    8.8404893E-09    9.0976692E+06    1.0816849E-08    9.1585470E+06
   -0.89   600.000   -9.344E+00    9.0365689E+06    1.4966106E-08    8.9336621E-09    9.0365689E+06    1.1409141E-08    9.1016471E+06
   -0.88   600.000   -9.356E+00    8.9437568E+06    1.5107776E-08    9.0552238E-09    8.9437568E+06    1.2001732E-08    9.0125524E+06
   -0.87   600.000   -9.368E+00    8.8229422E+06    1.5248641E-08    9.1975163E-09    8.8229422E+06    1.2579078E-08    8.8947385E+06
   -0.86   600.000   -9.379E+00    8.6783931E+06    1.5377294E-08    9.3450180E-09    8.6783931E+06    1.3117811E-08    8.7522823E+06
   -0.85   600.000   -9.391E+00    8.5150174E+06    1.5477092E-08    9.4760195E-09    8.5150174E+06    1.3587410E-08    8.5899715E+06
   -0.84   600.000   -9.402E+00    8.3383400E+06    1.5528698E-08    9.5655739E-09    8.3383400E+06    1.3952908E-08    8.4133018E+06
   -0.83   600.000   -9.413E+00    8.1543339E+06    1.5513281E-08    9.5891787E-09    8.1543339E+06    1.4179336E-08    8.2283168E+06
   -0.82   600.000   -9.424E+00    7.9691097E+06    1.5415657E-08    9.5264508E-09    7.9691097E+06    1.4237025E-08    8.0412904E+06
   -0.81   600.000   -9.435E+00    7.7885007E+06    1.5226703E-08    9.3640332E-09    7.7885007E+06    1.4106552E-08    7.8582930E+06
   -0.80   600.000   -9.446E+00    7.6176058E+06    1.4944497E-08    9.0971661E-09    7.6176058E+06    1.3782151E-08    7.6847084E+06
   -0.79   600.000   -9.457E+00    7.4603756E+06    1.4574056E-08    8.7297121E-09    7.4603756E+06    1.3272897E-08    7.5247903E+06
   -0.78   600.000   -9.467E+00    7.3193271E+06    1.4125888E-08    8.2728324E-09    7.3193271E+06    1.2601624E-08    7.3813523E+06
   -0.77   600.000   -9.477E+00    7.1954653E+06    1.3613914E-08    7.7428181E-09    7.1954653E+06    1.1802087E-08    7.2556707E+06
   -0.76   600.000   -9.487E+00    7.0884560E+06    1.3053365E-08    7.1586895E-09    7.0884560E+06    1.0915171E-08    7.1476463E+06
   -0.75   600.000   -9.497E+00    6.9970419E+06    1.2459128E-08    6.5400743E-09    6.9970419E+06    9.9848744E-09    7.0562149E+06
   -0.74   600.000   -9.507E+00    6.9196359E+06    1.1844796E-08    5.9056524E-09    6.9196359E+06    9.0545612E-09    6.9799403E+06
   -0.73   600.000   -9.517E+00    6.8549735E+06    1.1222373E-08    5.2722164E-09    6.8549735E+06    8.1637171E-09    6.9176661E+06
   -0.72   600.000   -9.526E+00    6.8026681E+06    1.0602477E-08    4.6542347E-09    6.8026681E+06    7.3453275E-09    6.8690704E+06
   -0.71   600.000   -9.536E+00    6.7635196E+06    9.9947737E-09    4.0637447E-09    6.7635196E+06    6.6239631E-09    6.8349710E+06
   -0.70   600.000   -9.545E+00    6.7394663E+06    9.4084184E-09    3.5104319E-09    6.7394663E+06    6.0146881E-09    6.8172697E+06
   -0.69   600.000   -9.554E+00    6.7331513E+06    8.8523071E-09    3.0018102E-09    6.7331513E+06    5.5228940E-09    6.8185090E+06
   -0.68   600.000   -9.564E+00    6.7471775E+06    8.3350523E-09    2.5434733E-09    6.7471775E+06    5.1450804E-09    6.8411155E+06
   -0.67   600.000   -9.573E+00    6.7832085E+06    7.8646619E-09    2.1394094E-09    6.7832085E+06    4.8704783E-09    6.8864916E+06
   -0.66   600.000   -9.582E+00    6.8411232E+06    7.4480029E-09    1.7923599E-09    6.8411232E+06    4.6832814E-09    6.9541654E+06
   -0.65   600.000   -9.591E+00    6.9184213E+06    7.0901990E-09    1.5041708E-09    6.9184213E+06    4.5651651E-09    7.0412044E+06
   -0.64   600.000   -9.601E+00    7.0100263E+06    6.7941510E-09    1.2760687E-09    7.0100263E+06    4.4977440E-09    7.1420390E+06
   -0.63   600.000   -9.610E+00    7.1085416E+06    6.5603501E-09    1.1087965E-09    7.1085416E+06    4.4646484E-09    7.2487576E+06
   -0.62   600.000   -9.620E+00    7.2049229E+06    6.3870954E-09    1.0025948E-09    7.2049229E+06    4.4529875E-09    7.3518322E+06
   -0.61   600.000   -9.629E+00    7.2894448E+06    6.2711300E-09    9.5707487E-10    7.2894448E+06    4.4540764E-09    7.4411451E+06
   -0.60   600.000   -9.639E+00    7.3527836E+06    6.2086041E-09    9.7108290E-10    7.3527836E+06    4.4634428E-09    7.5071290E+06
   -0.59   600.000   -9.649E+00    7.3870273E+06    6.1961820E-09    1.0426605E-09    7.3870273E+06    4.4802423E-09    7.5418184E+06
   -0.58   600.000   -9.658E+00    7.3864615E+06    6.2320456E-09    1.1691466E-09    7.3864615E+06    4.5062939E-09    7.5396505E+06
   -0.57   600.000   -9.668E+00    7.3480518E+06    6.3165512E-09    1.3473816E-09    7.3480518E+06    4.5449754E-09    7.4979341E+06
   -0.56   600.000   -9.678E+00    7.2716277E+06    6.4523584E-09    1.5739064E-09    7.2716277E+06    4.6001958E-09    7.4169927E+06
   -0.55   600.000   -9.687E+00    7.1598263E+06    6.6439808E-09    1.8450510E-09    7.1598263E+06    4.6756056E-09    7.3000516E+06
   -0.54   600.000   -9.697E+00    7.0178630E+06    6.8968492E-09    2.1568727E-09    7.0178630E+06    4.7741231E-09    7.1529482E+06
   -0.53   600.000   -9.706E+00    6.8531617E+06    7.2160812E-09    2.5049904E-09    6.8531617E+06    4.8977737E-09    6.9837072E+06
   -0.52   600.000   -9.716E+00    6.6748362E+06    7.6051775E-09    2.8844027E-09    6.6748362E+06    5.0477582E-09    6.8019805E+06
   -0.51   600.000   -9.725E+00    6.4929989E+06    8.0648252E-09    3.2893642E-09    6.4929989E+06    5.2246233E-09    6.6183287E+06
   -0.50   600.000   -9.734E+00    6.3179062E+06    8.5919325E-09    3.7133410E-09    6.3179062E+06    5.4284063E-09    6.4433514E+06
# T(K) = 700.00   Npoints =     901   V(cm^3) =  3.483E-22
   -9.50   700.000    1.594E+01    6.1193727E+05    1.5780025E-08    1.5505424E-08    6.1193727E+05    4.1825438E-08    6.1193727E+05
   -9.49   700.000    1.593E+01    6.5236054E+05    1.6042325E-08    1.5749470E-08    6.5236054E+05    4.3821288E-08    6.5236054E+05
   -9.48   700.000    1.593E+01    6.9400770E+05    1.6223966E-08    1.5913111E-08    6.9400770E+05    4.5653547E-08    6.9400770E+05
   -9.47   700.000    1.592E+01    7.3642807E+05    1.6324432E-08    1.5996256E-08    7.3642807E+05    4.7267080E-08    7.3642807E+05
   -9.46   700.000    1.592E+01    7.7908142E+05    1.6341604E-08    1.5997207E-08    7.7908142E+05    4.8601181E-08    7.7908142E+05
   -9.45   700.000    1.592E+01    8.2136721E+05    1.6272070E-08    1.5912934E-08    8.2136721E+05    4.9593790E-08    8.2136721E+05
   -9.44   700.000    1.591E+01    8.6266623E+05    1.6112031E-08    1.5739949E-08    8.6266623E+05    5.0187270E-08    8.6266623E+05
   -9.43   700.000    1.591E+01    9.0239175E+05    1.5858611E-08    1.5475578E-08    9.0239175E+05    5.0334917E-08    9.0239175E+05
   -9.42   700.000    1.590E+01    9.4004488E+05    1.5511247E-08    1.5119327E-08    9.4004488E+05    5.0007094E-08    9.4004488E+05
   -9.41   700.000    1.590E+01    9.7526815E+05    1.5072845E-08    1.4674019E-08    9.7526815E+05    4.9195844E-08    9.7526815E+05
   -9.40   700.000    1.589E+01    1.0078911E+06    1.4550436E-08    1.4146441E-08    1.0078911E+06    4.7917068E-08    1.0078911E+06
   -9.39   700.000    1.588E+01    1.0379630E+06    1.3955187E-08    1.3547367E-08    1.0379630E+06    4.6209866E-08    1.0379630E+06
   -9.38   700.000    1.588E+01    1.0657693E+06    1.3301787E-08    1.2890953E-08    1.0657693E+06    4.4133221E-08    1.0657693E+06
   -9.37   700.000    1.587E+01    1.0918296E+06    1.2607338E-08    1.2193666E-08    1.0918296E+06    4.1760695E-08    1.0918296E+06
   -9.36   700.000    1.587E+01    1.1168756E+06    1.1889991E-08    1.1472948E-08    1.1168756E+06    3.9174118E-08    1.1168756E+06
   -9.35   700.000    1.586E+01    1.1418079E+06    1.1167557E-08    1.0745867E-08    1.1418079E+06    3.6457273E-08    1.1418079E+06
   -9.34   700.000    1.586E+01    1.1676339E+06    1.0456309E-08    1.0027962E-08    1.1676339E+06    3.3690386E-08    1.1676339E+06
   -9.33   700.000    1.585E+01    1.1953875E+06    9.7700965E-09    9.3323965E-09    1.1953875E+06    3.0945923E-08    1.1953875E+06
   -9.32   700.000    1.584E+01    1.2260391E+06    9.1198516E-09    8.6695098E-09    1.2260391E+06    2.8285874E-08    1.2260391E+06
   -9.31   700.000    1.584E+01    1.2604031E+06    8.5134725E-09    8.0467486E-09    1.2604031E+06    2.5760450E-08    1.2604031E+06
   -9.30   700.000    1.583E+01    1.2990549E+06    7.9560485E-09    7.4689366E-09    1.2990549E+06    2.3407956E-08    1.2990549E+06
   -9.29   700.000    1.582E+01    1.3422659E+06    7.4503435E-09    6.9388051E-09    1.3422659E+06    2.1255549E-08    1.3422659E+06
   -9.28   700.000    1.582E+01    1.3899669E+06    6.9974452E-09    6.4576858E-09    1.3899669E+06    1.9320564E-08    1.3899669E+06
   -9.27   700.000    1.581E+01    1.4417411E+06    6.5974759E-09    6.0262544E-09    1.4417411E+06    1.7612167E-08    1.4417411E+06
   -9.26   700.000    1.580E+01    1.4968493E+06    6.2502632E-09    5.6452222E-09    1.4968493E+06    1.6133092E-08    1.4968493E+06
   -9.25   700.000    1.579E+01    1.5542825E+06    5.9558878E-09    5.3158800E-09    1.5542825E+06    1.4881334E-08    1.5542825E+06
   -9.24   700.000    1.579E+01    1.6128381E+06    5.7150524E-09    5.0404367E-09    1.6128381E+06    1.3851672E-08    1.6128381E+06
   -9.23   700.000    1.578E+01    1.6712134E+06    5.5292581E-09    4.8221300E-09    1.6712134E+06    1.3036986E-08    1.6712134E+06
   -9.22   700.000    1.577E+01    1.7281097E+06    5.4008093E-09    4.6651328E-09    1.7281097E+06    1.2429337E-08    1.7281097E+06
   -9.21   700.000    1.576E+01    1.7823412E+06    5.3326986E-09    4.5743089E-09    1.7823412E+06    1.2020821E-08    1.7823412E+06
   -9.20   700.000    1.575E+01    1.8329403E+06    5.3284301E-09    4.5548893E-09    1.8329403E+06    1.1804211E-08    1.8329403E+06
   -9.19   700.000    1.574E+01    1.8792487E+06    5.3918313E-09    4.6121338E-09    1.8792487E+06    1.1773398E-08    1.8792487E+06
   -9.18   700.000    1.573E+01    1.9209859E+06    5.5268792E-09    4.7510265E-09    1.9209859E+06    1.1923638E-08    1.9209859E+06
   -9.17   700.000    1.572E+01    1.9582827E+06    5.7375378E-09    4.9760186E-09    1.9582827E+06    1.2251614E-08    1.9582827E+06
   -9.16   700.000    1.571E+01    1.9916755E+06    6.0275848E-09    5.2908101E-09    1.9916755E+06    1.2755306E-08    1.9916755E+06
   -9.15   700.000    1.569E+01    2.0220577E+06    6.4003908E-09    5.6981398E-09    2.0220577E+06    1.3433669E-08    2.0220577E+06
   -9.14   700.000    1.568E+01    2.0505929E+06    6.8586197E-09    6.1995453E-09    2.0505929E+06    1.4286143E-08    2.0505929E+06
   -9.13   700.000    1.567E+01    2.0785993E+06    7.4038322E-09    6.7950629E-09    2.0785993E+06    1.5311972E-08    2.0785993E+06
   -9.12   700.000    1.565E+01    2.1074169E+06    8.0359925E-09    7.4828509E-09    2.1074169E+06    1.6509383E-08    2.1074169E+06
   -9.11   700.000    1.564E+01    2.1382736E+06    8.7529021E-09    8.2587434E-09    2.1382736E+06    1.7874627E-08    2.1382736E+06
   -9.10   700.000    1.562E+01    2.1721623E+06    9.5496032E-09    9.1157664E-09    2.1721623E+06    1.9400940E-08    2.1721623E+06
   -9.09   700.000    1.561E+01    2.2097427E+06    1.0417817E-08    1.0043672E-08    2.2097427E+06    2.1077487E-08    2.2097427E+06
   -9.08   700.000    1.559E+01    2.2512763E+06    1.1345494E-08    1.1028570E-08    2.2512763E+06    2.2888365E-08    2.2512763E+06
   -9.07   700.000    1.557E+01    2.2966000E+06    1.2316579E-08    1.2052749E-08    2.2966000E+06    2.4811785E-08    2.2966000E+06
   -9.06   700.000    1.555E+01    2.3451390E+06    1.3311080E-08    1.3094790E-08    2.3451390E+06    2.6819530E-08    2.3451390E+06
   -9.05   700.000    1.553E+01    2.3959556E+06    1.4305536E-08    1.4130069E-08    2.3959556E+06    2.8876832E-08    2.3959556E+06
   -9.04   700.000    1.551E+01    2.4478274E+06    1.5273951E-08    1.5131705E-08    2.4478274E+06    3.0942742E-08    2.4478274E+06
   -9.03   700.000    1.549E+01    2.4993466E+06    1.6189192E-08    1.6071968E-08    2.4993466E+06    3.2971096E-08    2.4993466E+06
   -9.02   700.000    1.547E+01    2.5490319E+06    1.7024778E-08    1.6924066E-08    2.5490319E+06    3.4912082E-08    2.5490319E+06
   -9.01   700.000    1.545E+01    2.5954448E+06    1.7756884E-08    1.7664150E-08    2.5954448E+06    3.6714411E-08    2.5954448E+06
   -9.00   700.000    1.542E+01    2.6373039E+06    1.8366324E-08    1.8273283E-08    2.6373039E+06    3.8327956E-08    2.6373039E+06
   -8.99   700.000    1.540E+01    2.6735889E+06    1.8840205E-08    1.8739081E-08    2.6735889E+06    3.9706696E-08    2.6735889E+06
   -8.98   700.000    1.537E+01    2.7036254E+06    1.9172992E-08    1.9056753E-08    2.7036254E+06    4.0811690E-08    2.7036254E+06
   -8.97   700.000    1.535E+01    2.7271404E+06    1.9366774E-08    1.9229336E-08    2.7271404E+06    4.1613757E-08    2.7271404E+06
   -8.96   700.000    1.532E+01    2.7442796E+06    1.9430699E-08    1.9267071E-08    2.7442796E+06    4.2095519E-08    2.7442796E+06
   -8.95   700.000    1.529E+01    2.7555796E+06    1.9379642E-08    1.9186013E-08    2.7555796E+06    4.2252507E-08    2.7555796E+06
   -8.94   700.000    1.526E+01    2.7618954E+06    1.9232338E-08    1.9006087E-08    2.7618954E+06    4.2093122E-08    2.7618954E+06
   -8.93   700.000    1.524E+01    2.7642910E+06    1.9009255E-08    1.8748875E-08    2.7642910E+06    4.1637435E-08    2.7642910E+06
   -8.92   700.000    1.521E+01    2.7639062E+06    1.8730512E-08    1.8435469E-08    2.7639062E+06    4.0914952E-08    2.7639062E+06
   -8.91   700.000    1.518E+01    2.7618199E+06    1.8414080E-08    1.8084606E-08    2.7618199E+06    3.9961671E-08    2.7618199E+06
   -8.90   700.000    1.515E+01    2.7589249E+06    1.8074440E-08    1.7711290E-08    2.7589249E+06    3.8816857E-08    2.7589249E+06
   -8.89   700.000    1.512E+01    2.7558317E+06    1.7721768E-08    1.7325974E-08    2.7558317E+06    3.7519969E-08    2.7558317E+06
   -8.88   700.000    1.509E+01    2.7528085E+06    1.7361674E-08    1.6934295E-08    2.7528085E+06    3.6108142E-08    2.7528085E+06
   -8.87   700.000    1.506E+01    2.7497620E+06    1.6995421E-08    1.6537340E-08    2.7497620E+06    3.4614453E-08    2.7497620E+06
   -8.86   700.000    1.503E+01    2.7462580E+06    1.6620595E-08    1.6132345E-08    2.7462580E+06    3.3067109E-08    2.7462580E+06
   -8.85   700.000    1.501E+01    2.7415798E+06    1.6232116E-08    1.5713766E-08    2.7415798E+06    3.1489463E-08    2.7415798E+06
   -8.84   700.000    1.498E+01    2.7348178E+06    1.5823501E-08    1.5274588E-08    2.7348178E+06    2.9900729E-08    2.7348178E+06
   -8.83   700.000    1.495E+01    2.7249840E+06    1.5388265E-08    1.4807771E-08    2.7249840E+06    2.8317126E-08    2.7249840E+06
   -8.82   700.000    1.492E+01    2.7111403E+06    1.4921284E-08    1.4307657E-08    2.7111403E+06    2.6753177E-08    2.7111403E+06
   -8.81   700.000    1.490E+01    2.6925265E+06    1.4419979E-08    1.3771180E-08    2.6925265E+06    2.5222916E-08    2.6925265E+06
   -8.80   700.000    1.487E+01    2.6686733E+06    1.3885120E-08    1.3198700E-08    2.6686733E+06    2.3740739E-08    2.6686733E+06
   -8.79   700.000    1.485E+01    2.6394832E+06    1.3321165E-08    1.2594354E-08    2.6394832E+06    2.2321795E-08    2.6394832E+06
   -8.78   700.000    1.482E+01    2.6052685E+06    1.2736055E-08    1.1965865E-08    2.6052685E+06    2.0981820E-08    2.6052685E+06
   -8.77   700.000    1.480E+01    2.5667389E+06    1.2140517E-08    1.1323865E-08    2.5667389E+06    1.9736487E-08    2.5667389E+06
   -8.76   700.000    1.478E+01    2.5249402E+06    1.1547003E-08    1.0680853E-08    2.5249402E+06    1.8600391E-08    2.5249402E+06
   -8.75   700.000    1.476E+01    2.4811506E+06    1.0968435E-08    1.0049956E-08    2.4811506E+06    1.7585881E-08    2.4811506E+06
   -8.74   700.000    1.474E+01    2.4367469E+06    1.0416937E-08    9.4436982E-09    2.4367469E+06    1.6701932E-08    2.4367469E+06
   -8.73   700.000    1.472E+01    2.3930574E+06    9.9027316E-09    8.8729277E-09    2.3930574E+06    1.5953265E-08    2.3930574E+06
   -8.72   700.000    1.470E+01    2.3512186E+06    9.4333149E-09    8.3460142E-09    2.3512186E+06    1.5339834E-08    2.3512186E+06
   -8.71   700.000    1.468E+01    2.3120528E+06    9.0129647E-09    7.8683734E-09    2.3120528E+06    1.4856743E-08    2.3120528E+06
   -8.70   700.000    1.466E+01    2.2759837E+06    8.6425985E-09    7.4423156E-09    2.2759837E+06    1.4494595E-08    2.2759837E+06
   -8.69   700.000    1.464E+01    2.2430015E+06    8.3199461E-09    7.0671796E-09    2.2430015E+06    1.4240187E-08    2.2430015E+06
   -8.68   700.000    1.463E+01    2.2126828E+06    8.0399834E-09    6.7396911E-09    2.2126828E+06    1.4077461E-08    2.2126828E+06
   -8.67   700.000    1.461E+01    2.1842674E+06    7.7955577E-09    6.4544786E-09    2.1842674E+06    1.3988578E-08    2.1842674E+06
   -8.66   700.000    1.460E+01    2.1567819E+06    7.5781320E-09    6.2046789E-09    2.1567819E+06    1.3954979E-08    2.1567819E+06
   -8.65   700.000    1.458E+01    2.1291947E+06    7.3785750E-09    5.9825768E-09    2.1291947E+06    1.3958330E-08    2.1291947E+06
   -8.64   700.000    1.457E+01    2.1005805E+06    7.1879256E-09    5.7802263E-09    2.1005805E+06    1.3981243E-08    2.1005805E+06
   -8.63   700.000    1.456E+01    2.0702682E+06    6.9980688E-09    5.5900141E-09    2.0702682E+06    1.4007756E-08    2.0702682E+06
   -8.62   700.000    1.455E+01    2.0379479E+06    6.8022668E-09    5.4051306E-09    2.0379479E+06    1.4023564E-08    2.0379479E+06
   -8.61   700.000    1.453E+01    2.0037194E+06    6.5955086E-09    5.2199235E-09    2.0037194E+06    1.4016075E-08    2.0037194E+06
   -8.60   700.000    1.452E+01    1.9680740E+06    6.3746640E-09    5.0301211E-09    1.9680740E+06    1.3974380E-08    1.9680740E+06
   -8.59   700.000    1.451E+01    1.9318145E+06    6.1384524E-09    4.8329240E-09    1.9318145E+06    1.3889242E-08    1.9318145E+06
   -8.58   700.000    1.450E+01    1.8959299E+06    5.8872604E-09    4.6269786E-09    1.8959299E+06    1.3753169E-08    1.8959300E+06
   -8.57   700.000    1.449E+01    1.8614469E+06    5.6228577E-09    4.4122552E-09    1.8614469E+06    1.3560611E-08    1.8614469E+06
   -8.56   700.000    1.448E+01    1.8292847E+06    5.3480594E-09    4.1898565E-09    1.8292847E+06    1.3308218E-08    1.8292847E+06
   -8.55   700.000    1.447E+01    1.8001347E+06    5.0663768E-09    3.9617791E-09    1.8001347E+06    1.2995080E-08    1.8001347E+06
   -8.54   700.000    1.446E+01    1.7743808E+06    4.7816819E-09    3.7306453E-09    1.7743808E+06    1.2622827E-08    1.7743808E+06
   -8.53   700.000    1.445E+01    1.7520681E+06    4.4978988E-09    3.4994201E-09    1.7520681E+06    1.2195503E-08    1.7520681E+06
   -8.52   700.000    1.444E+01    1.7329197E+06    4.2187284E-09    3.2711242E-09    1.7329197E+06    1.1719181E-08    1.7329197E+06
   -8.51   700.000    1.444E+01    1.7163975E+06    3.9474159E-09    3.0485649E-09    1.7163975E+06    1.1201379E-08    1.7163975E+06
   -8.50   700.000    1.443E+01    1.7017952E+06    3.6865739E-09    2.8341092E-09    1.7017952E+06    1.0650378E-08    1.7017952E+06
   -8.49   700.000    1.442E+01    1.6883514E+06    3.4380801E-09    2.6295246E-09    1.6883514E+06    1.0074585E-08    1.6883514E+06
   -8.48   700.000    1.441E+01    1.6753675E+06    3.2030632E-09    2.4359119E-09    1.6753675E+06    9.4820732E-09    1.6753675E+06
   -8.47   700.000    1.440E+01    1.6623138E+06    2.9819818E-09    2.2537360E-09    1.6623138E+06    8.8803394E-09    1.6623139E+06
   -8.46   700.000    1.439E+01    1.6489116E+06    2.7747846E-09    2.0829480E-09    1.6489116E+06    8.2762847E-09    1.6489116E+06
   -8.45   700.000    1.439E+01    1.6351783E+06    2.5811242E-09    1.9231691E-09    1.6351783E+06    7.6763394E-09    1.6351784E+06
   -8.44   700.000    1.438E+01    1.6214351E+06    2.4005842E-09    1.7739005E-09    1.6214351E+06    7.0866325E-09    1.6214351E+06
   -8.43   700.000    1.437E+01    1.6082750E+06    2.2328815E-09    1.6347180E-09    1.6082750E+06    6.5131129E-09    1.6082750E+06
   -8.42   700.000    1.436E+01    1.5965021E+06    2.0780095E-09    1.5054173E-09    1.5965021E+06    5.9615614E-09    1.5965022E+06
   -8.41   700.000    1.436E+01    1.5870512E+06    1.9363065E-09    1.3860934E-09    1.5870512E+06    5.4374813E-09    1.5870513E+06
   -8.40   700.000    1.435E+01    1.5808986E+06    1.8084495E-09    1.2771497E-09    1.5808986E+06    4.9458956E-09    1.5808987E+06
   -8.39   700.000    1.434E+01    1.5789753E+06    1.6953883E-09    1.1792498E-09    1.5789753E+06    4.4911048E-09    1.5789754E+06
   -8.38   700.000    1.433E+01    1.5820867E+06    1.5982406E-09    1.0932324E-09    1.5820867E+06    4.0764604E-09    1.5820868E+06
   -8.37   700.000    1.432E+01    1.5908449E+06    1.5181732E-09    1.0200097E-09    1.5908449E+06    3.7042013E-09    1.5908451E+06
   -8.36   700.000    1.431E+01    1.6056151E+06    1.4562842E-09    9.6046934E-10    1.6056151E+06    3.3753756E-09    1.6056152E+06
   -8.35   700.000    1.430E+01    1.6264788E+06    1.4135001E-09    9.1539096E-10    1.6264788E+06    3.0898534E-09    1.6264789E+06
   -8.34   700.000    1.429E+01    1.6532185E+06    1.3904903E-09    8.8538230E-10    1.6532185E+06    2.8464216E-09    1.6532187E+06
   -8.33   700.000    1.428E+01    1.6853269E+06    1.3876033E-09    8.7083488E-10    1.6853269E+06    2.6429402E-09    1.6853271E+06
   -8.32   700.000    1.427E+01    1.7220424E+06    1.4048221E-09    8.7189598E-10    1.7220424E+06    2.4765426E-09    1.7220427E+06
   -8.31   700.000    1.426E+01    1.7624117E+06    1.4417412E-09    8.8845310E-10    1.7624117E+06    2.3438606E-09    1.7624120E+06
   -8.30   700.000    1.425E+01    1.8053718E+06    1.4975665E-09    9.2012852E-10    1.8053718E+06    2.2412583E-09    1.8053722E+06
   -8.29   700.000    1.424E+01    1.8498416E+06    1.5711380E-09    9.6628339E-10    1.8498416E+06    2.1650621E-09    1.8498420E+06
   -8.28   700.000    1.423E+01    1.8948093E+06    1.6609758E-09    1.0260331E-09    1.8948093E+06    2.1117762E-09    1.8948098E+06
   -8.27   700.000    1.422E+01    1.9394030E+06    1.7653478E-09    1.0982768E-09    1.9394030E+06    2.0782738E-09    1.9394036E+06
   -8.26   700.000    1.421E+01    1.9829333E+06    1.8823555E-09    1.1817431E-09    1.9829333E+06    2.0619586E-09    1.9829340E+06
   -8.25   700.000    1.419E+01    2.0249065E+06    2.0100306E-09    1.2750531E-09    2.0249065E+06    2.0608906E-09    2.0249073E+06
   -8.24   700.000    1.418E+01    2.0650115E+06    2.1464352E-09    1.3767959E-09    2.0650115E+06    2.0738745E-09    2.0650125E+06
   -8.23   700.000    1.417E+01    2.1030896E+06    2.2897541E-09    1.4856079E-09    2.1030896E+06    2.1005073E-09    2.1030909E+06
   -8.22   700.000    1.415E+01    2.1390977E+06    2.4383642E-09    1.6002399E-09    2.1390977E+06    2.1411846E-09    2.1390991E+06
   -8.21   700.000    1.414E+01    2.1730733E+06    2.5908658E-09    1.7195963E-09    2.1730733E+06    2.1970594E-09    2.1730750E+06
   -8.20   700.000    1.412E+01    2.2051058E+06    2.7460612E-09    1.8427277E-09    2.2051058E+06    2.2699544E-09    2.2051078E+06
   -8.19   700.000    1.411E+01    2.2353122E+06    2.9028745E-09    1.9687704E-09    2.2353122E+06    2.3622255E-09    2.2353146E+06
   -8.18   700.000    1.409E+01    2.2638144E+06    3.0602145E-09    2.0968349E-09    2.2638144E+06    2.4765850E-09    2.2638172E+06
   -8.17   700.000    1.408E+01    2.2907155E+06    3.2168022E-09    2.2258607E-09    2.2907155E+06    2.6158951E-09    2.2907188E+06
   -8.16   700.000    1.406E+01    2.3160745E+06    3.3709913E-09    2.3544671E-09    2.3160745E+06    2.7829537E-09    2.3160783E+06
   -8.15   700.000    1.405E+01    2.3398846E+06    3.5206254E-09    2.4808335E-09    2.3398846E+06    2.9802953E-09    2.3398892E+06
   -8.14   700.000    1.403E+01    2.3620615E+06    3.6629708E-09    2.6026465E-09    2.3620615E+06    3.2100356E-09    2.3620669E+06
   -8.13   700.000    1.401E+01    2.3824473E+06    3.7947596E-09    2.7171357E-09    2.3824473E+06    3.4737851E-09    2.3824537E+06
   -8.12   700.000    1.400E+01    2.4008355E+06    3.9123579E-09    2.8212139E-09    2.4008355E+06    3.7726485E-09    2.4008430E+06
   -8.11   700.000    1.398E+01    2.4170126E+06    4.0120542E-09    2.9117099E-09    2.4170126E+06    4.1073161E-09    2.4170215E+06
   -8.10   700.000    1.396E+01    2.4308101E+06    4.0904321E-09    2.9856722E-09    2.4308101E+06    4.4782300E-09    2.4308206E+06
   -8.09   700.000    1.395E+01    2.4421544E+06    4.1447772E-09    3.0406975E-09    2.4421544E+06    4.8857895E-09    2.4421667E+06
   -8.08   700.000    1.393E+01    2.4511045E+06    4.1734471E-09    3.0752363E-09    2.4511045E+06    5.3305441E-09    2.4511191E+06
   -8.07   700.000    1.391E+01    2.4578676E+06    4.1761446E-09    3.0888233E-09    2.4578676E+06    5.8133163E-09    2.4578848E+06
   -8.06   700.000    1.389E+01    2.4627900E+06    4.1540425E-09    3.0821966E-09    2.4627900E+06    6.3352126E-09    2.4628104E+06
   -8.05   700.000    1.387E+01    2.4663276E+06    4.1097456E-09    3.0572885E-09    2.4663276E+06    6.8975085E-09    2.4663516E+06
   -8.04   700.000    1.386E+01    2.4690022E+06    4.0471024E-09    3.0170948E-09    2.4690022E+06    7.5014304E-09    2.4690306E+06
   -8.03   700.000    1.384E+01    2.4713546E+06    3.9709057E-09    2.9654531E-09    2.4713546E+06    8.1478938E-09    2.4713881E+06
   -8.02   700.000    1.382E+01    2.4739017E+06    3.8865376E-09    2.9067667E-09    2.4739017E+06    8.8372698E-09    2.4739412E+06
   -8.01   700.000    1.380E+01    2.4771038E+06    3.7996078E-09    2.8457160E-09    2.4771038E+06    9.5692475E-09    2.4771504E+06
   -8.00   700.000    1.378E+01    2.4813438E+06    3.7156227E-09    2.7869844E-09    2.4813438E+06    1.0342826E-08    2.4813988E+06
   -7.99   700.000    1.376E+01    2.4869175E+06    3.6397035E-09    2.7350168E-09    2.4869175E+06    1.1156423E-08    2.4869824E+06
   -7.98   700.000    1.374E+01    2.4940325E+06    3.5763521E-09    2.6938103E-09    2.4940325E+06    1.2008037E-08    2.4941091E+06
   -7.97   700.000    1.372E+01    2.5028115E+06    3.5292584E-09    2.6667329E-09    2.5028115E+06    1.2895380E-08    2.5029018E+06
   -7.96   700.000    1.370E+01    2.5132977E+06    3.5011369E-09    2.6563643E-09    2.5132977E+06    1.3815883E-08    2.5134042E+06
   -7.95   700.000    1.368E+01    2.5254593E+06    3.4935939E-09    2.6643571E-09    2.5254593E+06    1.4766508E-08    2.5255850E+06
   -7.94   700.000    1.366E+01    2.5391915E+06    3.5070323E-09    2.6913298E-09    2.5391915E+06    1.5743378E-08    2.5393397E+06
   -7.93   700.000    1.364E+01    2.5543157E+06    3.5406137E-09    2.7368058E-09    2.5543157E+06    1.6741242E-08    2.5544905E+06
   -7.92   700.000    1.362E+01    2.5705788E+06    3.5923010E-09    2.7992227E-09    2.5705788E+06    1.7752914E-08    2.5707848E+06
   -7.91   700.000    1.360E+01    2.5876516E+06    3.6589976E-09    2.8760278E-09    2.5876516E+06    1.8768784E-08    2.5878945E+06
   -7.90   700.000    1.358E+01    2.6051316E+06    3.7367893E-09    2.9638682E-09    2.6051316E+06    1.9776536E-08    2.6054178E+06
   -7.89   700.000    1.355E+01    2.6225477E+06    3.8212769E-09    3.0588691E-09    2.6225477E+06    2.0761165E-08    2.6228850E+06
   -7.88   700.000    1.353E+01    2.6393709E+06    3.9079665E-09    3.1569754E-09    2.6393709E+06    2.1705324E-08    2.6397681E+06
   -7.87   700.000    1.351E+01    2.6550266E+06    3.9926723E-09    3.2543172E-09    2.6550266E+06    2.2590014E-08    2.6554943E+06
   -7.86   700.000    1.348E+01    2.6689120E+06    4.0718807E-09    3.3475534E-09    2.6689120E+06    2.3395571E-08    2.6694624E+06
   -7.85   700.000    1.346E+01    2.6804158E+06    4.1430259E-09    3.4341469E-09    2.6804158E+06    2.4102891E-08    2.6810632E+06
   -7.84   700.000    1.343E+01    2.6889436E+06    4.2046441E-09    3.5125366E-09    2.6889436E+06    2.4694811E-08    2.6897047E+06
   -7.83   700.000    1.341E+01    2.6939471E+06    4.2563892E-09    3.5821854E-09    2.6939471E+06    2.5157518E-08    2.6948412E+06
   -7.82   700.000    1.338E+01    2.6949585E+06    4.2989179E-09    3.6435080E-09    2.6949585E+06    2.5481849E-08    2.6960080E+06
   -7.81   700.000    1.335E+01    2.6916259E+06    4.3336687E-09    3.6976954E-09    2.6916259E+06    2.5664319E-08    2.6928565E+06
   -7.80   700.000    1.332E+01    2.6837454E+06    4.3625727E-09    3.7464734E-09    2.6837454E+06    2.5707687E-08    2.6851869E+06
   -7.79   700.000    1.329E+01    2.6712847E+06    4.3877443E-09    3.7918343E-09    2.6712847E+06    2.5620969E-08    2.6729708E+06
   -7.78   700.000    1.327E+01    2.6543923E+06    4.4111912E-09    3.8357831E-09    2.6543923E+06    2.5418836E-08    2.6563616E+06
   -7.77   700.000    1.323E+01    2.6333916E+06    4.4345827E-09    3.8801294E-09    2.6333916E+06    2.5120474E-08    2.6356876E+06
   -7.76   700.000    1.320E+01    2.6087592E+06    4.4590924E-09    3.9263400E-09    2.6087592E+06    2.4748055E-08    2.6114306E+06
   -7.75   700.000    1.317E+01    2.5810945E+06    4.4853243E-09    3.9754554E-09    2.5810945E+06    2.4325036E-08    2.5841953E+06
   -7.74   700.000    1.314E+01    2.5510862E+06    4.5133144E-09    4.0280599E-09    2.5510862E+06    2.3874484E-08    2.5546759E+06
   -7.73   700.000    1.310E+01    2.5194847E+06    4.5425937E-09    4.0842918E-09    2.5194847E+06    2.3417611E-08    2.5236273E+06
   -7.72   700.000    1.307E+01    2.4870835E+06    4.5722974E-09    4.1438818E-09    2.4870835E+06    2.2972636E-08    2.4918475E+06
   -7.71   700.000    1.303E+01    2.4547122E+06    4.6013031E-09    4.2062131E-09    2.4547122E+06    2.2554011E-08    2.4601693E+06
   -7.70   700.000    1.299E+01    2.4232368E+06    4.6283821E-09    4.2703959E-09    2.4232368E+06    2.2172011E-08    2.4294599E+06
   -7.69   700.000    1.296E+01    2.3935583E+06    4.6523451E-09    4.3353538E-09    2.3935583E+06    2.1832639E-08    2.4006201E+06
   -7.68   700.000    1.292E+01    2.3666039E+06    4.6721609E-09    4.3999073E-09    2.3666039E+06    2.1537771E-08    2.3745735E+06
   -7.67   700.000    1.287E+01    2.3433002E+06    4.6870281E-09    4.4628439E-09    2.3433002E+06    2.1285483E-08    2.3522407E+06
   -7.66   700.000    1.283E+01    2.3245295E+06    4.6963881E-09    4.5229593E-09    2.3245295E+06    2.1070480E-08    2.3344941E+06
   -7.65   700.000    1.279E+01    2.3110688E+06    4.6998809E-09    4.5790669E-09    2.3110688E+06    2.0884614E-08    2.3220977E+06
   -7.64   700.000    1.275E+01    2.3035225E+06    4.6972633E-09    4.6299849E-09    2.3035225E+06    2.0717484E-08    2.3156388E+06
   -7.63   700.000    1.270E+01    2.3022579E+06    4.6883250E-09    4.6745240E-09    2.3022579E+06    2.0557139E-08    2.3154653E+06
   -7.62   700.000    1.265E+01    2.3073570E+06    4.6728424E-09    4.7115068E-09    2.3073570E+06    2.0390934E-08    2.3216372E+06
   -7.61   700.000    1.261E+01    2.3185929E+06    4.6506053E-09    4.7398447E-09    2.3185929E+06    2.0206536E-08    2.3339047E+06
   -7.60   700.000    1.256E+01    2.3354354E+06    4.6215300E-09    4.7586847E-09    2.3354354E+06    1.9993062E-08    2.3517143E+06
   -7.59   700.000    1.251E+01    2.3570847E+06    4.5858473E-09    4.7676146E-09    2.3570847E+06    1.9742242E-08    2.3742446E+06
   -7.58   700.000    1.246E+01    2.3825278E+06    4.5443270E-09    4.7668905E-09    2.3825278E+06    1.9449483E-08    2.4004630E+06
   -7.57   700.000    1.241E+01    2.4106081E+06    4.4984842E-09    4.7576387E-09    2.4106081E+06    1.9114636E-08    2.4291968E+06
   -7.56   700.000    1.236E+01    2.4400981E+06    4.4507119E-09    4.7419792E-09    2.4400981E+06    1.8742348E-08    2.4592065E+06
   -7.55   700.000    1.231E+01    2.4697683E+06    4.4042965E-09    4.7230317E-09    2.4697683E+06    1.8341883E-08    2.4892546E+06
   -7.54   700.000    1.226E+01    2.4984436E+06    4.3632953E-09    4.7047874E-09    2.4984436E+06    1.7926415E-08    2.5181622E+06
   -7.53   700.000    1.220E+01    2.5250463E+06    4.3322859E-09    4.6918517E-09    2.5250463E+06    1.7511871E-08    2.5448520E+06
   -7.52   700.000    1.215E+01    2.5486250E+06    4.3160136E-09    4.6890872E-09    2.5486250E+06    1.7115476E-08    2.5683763E+06
   -7.51   700.000    1.210E+01    2.5683713E+06    4.3189826E-09    4.7011979E-09    2.5683713E+06    1.6754169E-08    2.5879331E+06
   -7.50   700.000    1.204E+01    2.5836257E+06    4.3450392E-09    4.7323006E-09    2.5836257E+06    1.6443081E-08    2.6028716E+06
   -7.49   700.000    1.199E+01    2.5938778E+06    4.3969900E-09    4.7855280E-09    2.5938778E+06    1.6194222E-08    2.6126918E+06
   -7.48   700.000    1.193E+01    2.5987607E+06    4.4762942E-09    4.8626992E-09    2.5987607E+06    1.6015490E-08    2.6170382E+06
   -7.47   700.000    1.188E+01    2.5980425E+06    4.5828517E-09    4.9640857E-09    2.5980425E+06    1.5910075E-08    2.6156906E+06
   -7.46   700.000    1.182E+01    2.5916148E+06    4.7149015E-09    5.0882874E-09    2.5916148E+06    1.5876260E-08    2.6085530E+06
   -7.45   700.000    1.177E+01    2.5794804E+06    4.8690306E-09    5.2322244E-09    2.5794804E+06    1.5907637E-08    2.5956405E+06
   -7.44   700.000    1.171E+01    2.5617400E+06    5.0402896E-09    5.3912443E-09    2.5617400E+06    1.5993661E-08    2.5770658E+06
   -7.43   700.000    1.166E+01    2.5385797E+06    5.2224061E-09    5.5593371E-09    2.5385797E+06    1.6120508E-08    2.5530269E+06
   -7.42   700.000    1.160E+01    2.5102593E+06    5.4080904E-09    5.7294521E-09    2.5102593E+06    1.6272149E-08    2.5237955E+06
   -7.41   700.000    1.155E+01    2.4771039E+06    5.5894303E-09    5.8939092E-09    2.4771039E+06    1.6431575E-08    2.4897086E+06
   -7.40   700.000    1.150E+01    2.4394950E+06    5.7583681E-09    6.0448935E-09    2.4394950E+06    1.6582077E-08    2.4511591E+06
   -7.39   700.000    1.144E+01    2.3978614E+06    5.9072494E-09    6.1750169E-09    2.3978614E+06    1.6708509E-08    2.4085877E+06
   -7.38   700.000    1.139E+01    2.3526675E+06    6.0294148E-09    6.2779129E-09    2.3526675E+06    1.6798432E-08    2.3624694E+06
   -7.37   700.000    1.133E+01    2.3043966E+06    6.1197853E-09    6.3488160E-09    2.3043966E+06    1.6843044E-08    2.3132983E+06
   -7.36   700.000    1.128E+01    2.2535306E+06    6.1753749E-09    6.3850587E-09    2.2535306E+06    1.6837789E-08    2.2615655E+06
   -7.35   700.000    1.123E+01    2.2005272E+06    6.1956544E-09    6.3864166E-09    2.2005272E+06    1.6782572E-08    2.2077368E+06
   -7.34   700.000    1.117E+01    2.1457965E+06    6.1826994E-09    6.3552382E-09    2.1457965E+06    1.6681531E-08    2.1522288E+06
   -7.33   700.000    1.112E+01    2.0896820E+06    6.1410865E-09    6.2963287E-09    2.0896820E+06    1.6542385E-08    2.0953899E+06
   -7.32   700.000    1.107E+01    2.0324479E+06    6.0775378E-09    6.2165906E-09    2.0324479E+06    1.6375440E-08    2.0374873E+06
   -7.31   700.000    1.102E+01    1.9742758E+06    6.0003593E-09    6.1244656E-09    1.9742758E+06    1.6192392E-08    1.9787040E+06
   -7.30   700.000    1.097E+01    1.9152711E+06    5.9187478E-09    6.0292508E-09    1.9152711E+06    1.6005100E-08    1.9191454E+06
   -7.29   700.000    1.093E+01    1.8554787E+06    5.8420518E-09    5.9403700E-09    1.8554787E+06    1.5824495E-08    1.8588550E+06
   -7.28   700.000    1.088E+01    1.7949060E+06    5.7790647E-09    5.8666737E-09    1.7949060E+06    1.5659741E-08    1.7978379E+06
   -7.27   700.000    1.083E+01    1.7335499E+06    5.7374031E-09    5.8158190E-09    1.7335499E+06    1.5517719E-08    1.7360877E+06
   -7.26   700.000    1.079E+01    1.6714222E+06    5.7229965E-09    5.7937535E-09    1.6714222E+06    1.5402825E-08    1.6736127E+06
   -7.25   700.000    1.075E+01    1.6085723E+06    5.7396939E-09    5.8043115E-09    1.6085723E+06    1.5317012E-08    1.6104582E+06
   -7.24   700.000    1.071E+01    1.5451005E+06    5.7889830E-09    5.8489205E-09    1.5451005E+06    1.5259992E-08    1.5467207E+06
   -7.23   700.000    1.066E+01    1.4811635E+06    5.8698219E-09    5.9264236E-09    1.4811635E+06    1.5229475E-08    1.4825528E+06
   -7.22   700.000    1.063E+01    1.4169701E+06    5.9785932E-09    6.0330299E-09    1.4169701E+06    1.5221386E-08    1.4181594E+06
   -7.21   700.000    1.059E+01    1.3527694E+06    6.1092038E-09    6.1624214E-09    1.3527694E+06    1.5229998E-08    1.3537860E+06
   -7.20   700.000    1.055E+01    1.2888347E+06    6.2533552E-09    6.3060380E-09    1.2888347E+06    1.5247998E-08    1.2897026E+06
   -7.19   700.000    1.052E+01    1.2254464E+06    6.4010020E-09    6.4535606E-09    1.2254464E+06    1.5266559E-08    1.2261867E+06
   -7.18   700.000    1.048E+01    1.1628767E+06    6.5409945E-09    6.5935819E-09    1.1628767E+06    1.5275504E-08    1.1635076E+06
   -7.17   700.000    1.045E+01    1.1013796E+06    6.6618736E-09    6.7144287E-09    1.1013796E+06    1.5263677E-08    1.1019170E+06
   -7.16   700.000    1.042E+01    1.0411860E+06    6.7527552E-09    6.8050692E-09    1.0411860E+06    1.5219588E-08    1.0416435E+06
   -7.15   700.000    1.039E+01    9.8250543E+05    6.8042179E-09    6.8560149E-09    9.8250543E+05    1.5132366E-08    9.8289486E+05
   -7.14   700.000    1.036E+01    9.2553153E+05    6.8090950E-09    6.8601157E-09    9.2553153E+05    1.4992922E-08    9.2586300E+05
   -7.13   700.000    1.033E+01    8.7045009E+05    6.7630773E-09    6.8131562E-09    8.7045009E+05    1.4795197E-08    8.7073229E+05
   -7.12   700.000    1.030E+01    8.1744703E+05    6.6650492E-09    6.7141769E-09    8.1744703E+05    1.4537274E-08    8.1768741E+05
   -7.11   700.000    1.027E+01    7.6671425E+05    6.5171167E-09    6.5654829E-09    7.6671425E+05    1.4222143E-08    7.6691921E+05
   -7.10   700.000    1.025E+01    7.1845208E+05    6.3243275E-09    6.3723432E-09    7.1845208E+05    1.3857965E-08    7.1862710E+05
   -7.09   700.000    1.022E+01    6.7286797E+05    6.0941282E-09    6.1424306E-09    6.7286797E+05    1.3457767E-08    6.7301774E+05
   -7.08   700.000    1.019E+01    6.3017190E+05    5.8356431E-09    5.8850849E-09    6.3017190E+05    1.3038630E-08    6.3030045E+05
   -7.07   700.000    1.017E+01    5.9056974E+05    5.5588800E-09    5.6105105E-09    5.9056974E+05    1.2620513E-08    5.9068053E+05
   -7.06   700.000    1.014E+01    5.5425587E+05    5.2739727E-09    5.3290123E-09    5.5425587E+05    1.2224933E-08    5.5435187E+05
   -7.05   700.000    1.011E+01    5.2140638E+05    4.9905478E-09    5.0503608E-09    5.2140638E+05    1.1873709E-08    5.2149018E+05
   -7.04   700.000    1.009E+01    4.9217361E+05    4.7172734E-09    4.7833399E-09    4.9217361E+05    1.1587930E-08    4.9224744E+05
   -7.03   700.000    1.006E+01    4.6668208E+05    4.4616063E-09    4.5354934E-09    4.6668208E+05    1.1387248E-08    4.6674790E+05
   -7.02   700.000    1.003E+01    4.4502546E+05    4.2297182E-09    4.3130504E-09    4.4502546E+05    1.1289492E-08    4.4508497E+05
   -7.01   700.000    9.998E+00    4.2726381E+05    4.0265600E-09    4.1209873E-09    4.2726381E+05    1.1310564E-08    4.2731852E+05
   -7.00   700.000    9.966E+00    4.1342033E+05    3.8560079E-09    3.9631701E-09    4.1342033E+05    1.1464506E-08    4.1347159E+05
   -6.99   700.000    9.933E+00    4.0347726E+05    3.7210398E-09    3.8425281E-09    4.0347726E+05    1.1763639E-08    4.0352627E+05
   -6.98   700.000    9.897E+00    3.9737080E+05    3.6239005E-09    3.7612138E-09    3.9737080E+05    1.2218673E-08    3.9741863E+05
   -6.97   700.000    9.859E+00    3.9498591E+05    3.5662272E-09    3.7207260E-09    3.9498591E+05    1.2838702E-08    3.9503353E+05
   -6.96   700.000    9.818E+00    3.9615197E+05    3.5491247E-09    3.7219839E-09    3.9615197E+05    1.3631040E-08    3.9620024E+05
   -6.95   700.000    9.774E+00    4.0064052E+05    3.5731893E-09    3.7653517E-09    4.0064052E+05    1.4600860E-08    4.0069020E+05
   -6.94   700.000    9.727E+00    4.0816650E+05    3.6384874E-09    3.8506208E-09    4.0816650E+05    1.5750635E-08    4.0821827E+05
   -6.93   700.000    9.676E+00    4.1839378E+05    3.7444971E-09    3.9769580E-09    4.1839378E+05    1.7079389E-08    4.1844820E+05
   -6.92   700.000    9.621E+00    4.3094518E+05    3.8900225E-09    4.1428291E-09    4.3094518E+05    1.8581789E-08    4.3100272E+05
   -6.91   700.000    9.562E+00    4.4541679E+05    4.0730886E-09    4.3459040E-09    4.4541679E+05    2.0247141E-08    4.4547779E+05
   -6.90   700.000    9.499E+00    4.6139535E+05    4.2908294E-09    4.5829576E-09    4.6139535E+05    2.2058382E-08    4.6146008E+05
   -6.89   700.000    9.431E+00    4.7847758E+05    4.5393866E-09    4.8497807E-09    4.7847758E+05    2.3991221E-08    4.7854619E+05
   -6.88   700.000    9.358E+00    4.9628952E+05    4.8138431E-09    5.1411261E-09    4.9628952E+05    2.6013615E-08    4.9636206E+05
   -6.87   700.000    9.281E+00    5.1450454E+05    5.1082228E-09    5.4507205E-09    5.1450454E+05    2.8085796E-08    5.1458097E+05
   -6.86   700.000    9.199E+00    5.3285848E+05    5.4155897E-09    5.7713736E-09    5.3285848E+05    3.0161073E-08    5.3293869E+05
   -6.85   700.000    9.112E+00    5.5116090E+05    5.7282743E-09    6.0952135E-09    5.5116090E+05    3.2187547E-08    5.5124473E+05
   -6.84   700.000    9.020E+00    5.6930173E+05    6.0382391E-09    6.4140594E-09    5.6930173E+05    3.4110792E-08    5.6938896E+05
   -6.83   700.000    8.924E+00    5.8725276E+05    6.3375733E-09    6.7199197E-09    5.8725276E+05    3.5877345E-08    5.8734314E+05
   -6.82   700.000    8.823E+00    6.0506396E+05    6.6190752E-09    7.0055771E-09    6.0506396E+05    3.7438689E-08    6.0515721E+05
   -6.81   700.000    8.718E+00    6.2285454E+05    6.8768588E-09    7.2651939E-09    6.2285454E+05    3.8755204E-08    6.2295036E+05
   -6.80   700.000    8.609E+00    6.4079926E+05    7.1068988E-09    7.4948531E-09    6.4079926E+05    3.9799520E-08    6.4089731E+05
   -6.79   700.000    8.496E+00    6.5911032E+05    7.3074303E-09    7.6929520E-09    6.5911032E+05    4.0558696E-08    6.5921022E+05
   -6.78   700.000    8.381E+00    6.7801596E+05    7.4791308E-09    7.8603737E-09    6.7801596E+05    4.1034855E-08    6.7811727E+05
   -6.77   700.000    8.263E+00    6.9773698E+05    7.6250420E-09    8.0003977E-09    6.9773698E+05    4.1244119E-08    6.9783918E+05
   -6.76   700.000    8.142E+00    7.1846299E+05    7.7502263E-09    8.1183419E-09    7.1846299E+05    4.1214040E-08    7.1856548E+05
   -6.75   700.000    8.019E+00    7.4033063E+05    7.8611930E-09    8.2209748E-09    7.4033063E+05    4.0979931E-08    7.4043273E+05
   -6.74   700.000    7.895E+00    7.6340599E+05    7.9651670E-09    8.3157697E-09    7.6340599E+05    4.0580710E-08    7.6350696E+05
   -6.73   700.000    7.770E+00    7.8767354E+05    8.0692973E-09    8.4101007E-09    7.8767354E+05    4.0054906E-08    7.8777257E+05
   -6.72   700.000    7.643E+00    8.1303293E+05    8.1799193E-09    8.5104963E-09    8.1303293E+05    3.9437380E-08    8.1312921E+05
   -6.71   700.000    7.516E+00    8.3930433E+05    8.3019805E-09    8.6220596E-09    8.3930433E+05    3.8757160E-08    8.3939707E+05
   -6.70   700.000    7.389E+00    8.6624144E+05    8.4387164E-09    8.7481431E-09    8.6624144E+05    3.8036571E-08    8.6632989E+05
   -6.69   700.000    7.261E+00    8.9355017E+05    8.5916188E-09    8.8903214E-09    8.9355017E+05    3.7291565E-08    8.9363373E+05
   -6.68   700.000    7.134E+00    9.2091057E+05    8.7606834E-09    9.0486456E-09    9.2091057E+05    3.6533009E-08    9.2098872E+05
   -6.67   700.000    7.007E+00    9.4799875E+05    8.9448592E-09    9.2221048E-09    9.4799875E+05    3.5768486E-08    9.4807115E+05
   -6.66   700.000    6.882E+00    9.7450678E+05    9.1425759E-09    9.4091660E-09    9.7450678E+05    3.5004145E-08    9.7457324E+05
   -6.65   700.000    6.757E+00    1.0001590E+06    9.3522022E-09    9.6082470E-09    1.0001590E+06    3.4246164E-08    1.0002195E+06
   -6.64   700.000    6.634E+00    1.0247244E+06    9.5723062E-09    9.8179894E-09    1.0247244E+06    3.3501494E-08    1.0247789E+06
   -6.63   700.000    6.513E+00    1.0480259E+06    9.8016360E-09    1.0037250E-08    1.0480259E+06    3.2777759E-08    1.0480748E+06
   -6.62   700.000    6.394E+00    1.0699473E+06    1.0038814E-08    1.0264800E-08    1.0699473E+06    3.2082374E-08    1.0699908E+06
   -6.61   700.000    6.278E+00    1.0904386E+06    1.0281811E-08    1.0498799E-08    1.0904386E+06    3.1421115E-08    1.0904770E+06
   -6.60   700.000    6.164E+00    1.1095198E+06    1.0527314E-08    1.0736163E-08    1.1095198E+06    3.0796494E-08    1.1095536E+06
   -6.59   700.000    6.053E+00    1.1272826E+06    1.0770148E-08    1.0971966E-08    1.1272826E+06    3.0206329E-08    1.1273122E+06
   -6.58   700.000    5.946E+00    1.1438877E+06    1.1002892E-08    1.1199045E-08    1.1438877E+06    2.9642840E-08    1.1439134E+06
   -6.57   700.000    5.841E+00    1.1595578E+06    1.1215810E-08    1.1407915E-08    1.1595578E+06    2.9092526E-08    1.1595802E+06
   -6.56   700.000    5.740E+00    1.1745647E+06    1.1397179E-08    1.1587065E-08    1.1745647E+06    2.8536923E-08    1.1745840E+06
   -6.55   700.000    5.643E+00    1.1892104E+06    1.1534020E-08    1.1723680E-08    1.1892104E+06    2.7954217E-08    1.1892271E+06
   -6.54   700.000    5.548E+00    1.2038052E+06    1.1613176E-08    1.1804695E-08    1.2038052E+06    2.7321518E-08    1.2038196E+06
   -6.53   700.000    5.458E+00    1.2186438E+06    1.1622624E-08    1.1818093E-08    1.2186438E+06    2.6617498E-08    1.2186561E+06
   -6.52   700.000    5.371E+00    1.2339826E+06    1.1552810E-08    1.1754236E-08    1.2339826E+06    2.5825005E-08    1.2339931E+06
   -6.51   700.000    5.288E+00    1.2500211E+06    1.1397815E-08    1.1607028E-08    1.2500211E+06    2.4933236E-08    1.2500301E+06
   -6.50   700.000    5.209E+00    1.2668898E+06    1.1156128E-08    1.1374698E-08    1.2668898E+06    2.3939125E-08    1.2668975E+06
   -6.49   700.000    5.133E+00    1.2846451E+06    1.0830898E-08    1.1060060E-08    1.2846451E+06    2.2847725E-08    1.2846517E+06
   -6.48   700.000    5.061E+00    1.3032744E+06    1.0429616E-08    1.0670219E-08    1.3032744E+06    2.1671550E-08    1.3032800E+06
   -6.47   700.000    4.993E+00    1.3227096E+06    9.9632975E-09    1.0215771E-08    1.3227096E+06    2.0429057E-08    1.3227143E+06
   -6.46   700.000    4.928E+00    1.3428488E+06    9.4453276E-09    9.7096750E-09    1.3428488E+06    1.9142559E-08    1.3428529E+06
   -6.45   700.000    4.867E+00    1.3635838E+06    8.8901816E-09    9.1659941E-09    1.3635838E+06    1.7835963E-08    1.3635872E+06
   -6.44   700.000    4.810E+00    1.3848273E+06    8.3122168E-09    8.5987102E-09    1.3848273E+06    1.6532681E-08    1.3848302E+06
   -6.43   700.000    4.756E+00    1.4065360E+06    7.7246981E-09    8.0207678E-09    1.4065360E+06    1.5253971E-08    1.4065385E+06
   -6.42   700.000    4.705E+00    1.4287234E+06    7.1391356E-09    7.4434263E-09    1.4287234E+06    1.4017836E-08    1.4287255E+06
   -6.41   700.000    4.657E+00    1.4514593E+06    6.5649460E-09    6.8759305E-09    1.4514593E+06    1.2838482E-08    1.4514611E+06
   -6.40   700.000    4.613E+00    1.4748557E+06    6.0093951E-09    6.3254579E-09    1.4748557E+06    1.1726241E-08    1.4748572E+06
   -6.39   700.000    4.571E+00    1.4990402E+06    5.4777498E-09    5.7972721E-09    1.4990402E+06    1.0687844E-08    1.4990415E+06
   -6.38   700.000    4.532E+00    1.5241258E+06    4.9735628E-09    5.2950053E-09    1.5241258E+06    9.7268834E-09    1.5241269E+06
   -6.37   700.000    4.495E+00    1.5501803E+06    4.4990217E-09    4.8210026E-09    1.5501803E+06    8.8443749E-09    1.5501812E+06
   -6.36   700.000    4.460E+00    1.5772037E+06    4.0553077E-09    4.3766759E-09    1.5772037E+06    8.0393212E-09    1.5772044E+06
   -6.35   700.000    4.427E+00    1.6051173E+06    3.6429274E-09    3.9628262E-09    1.6051173E+06    7.3092407E-09    1.6051180E+06
   -6.34   700.000    4.397E+00    1.6337659E+06    3.2619888E-09    3.5799096E-09    1.6337659E+06    6.6506312E-09    1.6337665E+06
   -6.33   700.000    4.367E+00    1.6629311E+06    2.9124084E-09    3.2282302E-09    1.6629311E+06    6.0593639E-09    1.6629316E+06
   -6.32   700.000    4.340E+00    1.6923542E+06    2.5940430E-09    2.9080551E-09    1.6923542E+06    5.5310068E-09    1.6923547E+06
   -6.31   700.000    4.313E+00    1.7217648E+06    2.3067513E-09    2.6196566E-09    1.7217648E+06    5.0610827E-09    1.7217651E+06
   -6.30   700.000    4.288E+00    1.7509116E+06    2.0503978E-09    2.3632956E-09    1.7509116E+06    4.6452659E-09    1.7509119E+06
   -6.29   700.000    4.264E+00    1.7795940E+06    1.8248178E-09    2.1391668E-09    1.7795940E+06    4.2795225E-09    1.7795942E+06
   -6.28   700.000    4.241E+00    1.8076905E+06    1.6297642E-09    1.9473258E-09    1.8076905E+06    3.9601961E-09    1.8076907E+06
   -6.27   700.000    4.219E+00    1.8351822E+06    1.4648532E-09    1.7876168E-09    1.8351822E+06    3.6840423E-09    1.8351823E+06
   -6.26   700.000    4.197E+00    1.8621669E+06    1.3295220E-09    1.6596130E-09    1.8621669E+06    3.4482178E-09    1.8621671E+06
   -6.25   700.000    4.177E+00    1.8888612E+06    1.2230031E-09    1.5625744E-09    1.8888612E+06    3.2502287E-09    1.8888614E+06
   -6.24   700.000    4.156E+00    1.9155859E+06    1.1443166E-09    1.4954248E-09    1.9155859E+06    3.0878513E-09    1.9155860E+06
   -6.23   700.000    4.137E+00    1.9427346E+06    1.0922746E-09    1.4567445E-09    1.9427346E+06    2.9590353E-09    1.9427347E+06
   -6.22   700.000    4.117E+00    1.9707274E+06    1.0654946E-09    1.4447784E-09    1.9707274E+06    2.8618044E-09    1.9707274E+06
   -6.21   700.000    4.098E+00    1.9999538E+06    1.0624171E-09    1.4574577E-09    1.9999538E+06    2.7941664E-09    1.9999539E+06
   -6.20   700.000    4.079E+00    2.0307149E+06    1.0813270E-09    1.4924378E-09    2.0307149E+06    2.7540441E-09    2.0307150E+06
   -6.19   700.000    4.060E+00    2.0631734E+06    1.1203754E-09    1.5471537E-09    2.0631734E+06    2.7392332E-09    2.0631735E+06
   -6.18   700.000    4.042E+00    2.0973220E+06    1.1776043E-09    1.6188914E-09    2.0973220E+06    2.7473928E-09    2.0973220E+06
   -6.17   700.000    4.023E+00    2.1329758E+06    1.2509704E-09    1.7048725E-09    2.1329758E+06    2.7760672E-09    2.1329758E+06
   -6.16   700.000    4.004E+00    2.1697903E+06    1.3383677E-09    1.8023420E-09    2.1697903E+06    2.8227368E-09    2.1697903E+06
   -6.15   700.000    3.985E+00    2.2073006E+06    1.4376429E-09    1.9086486E-09    2.2073006E+06    2.8848901E-09    2.2073006E+06
   -6.14   700.000    3.966E+00    2.2449725E+06    1.5466008E-09    2.0213027E-09    2.2449725E+06    2.9601074E-09    2.2449725E+06
   -6.13   700.000    3.946E+00    2.2822547E+06    1.6629992E-09    2.1380034E-09    2.2822547E+06    3.0461487E-09    2.2822547E+06
   -6.12   700.000    3.927E+00    2.3186223E+06    1.7845348E-09    2.2566322E-09    2.3186223E+06    3.1410374E-09    2.3186223E+06
   -6.11   700.000    3.907E+00    2.3536043E+06    1.9088300E-09    2.3752212E-09    2.3536043E+06    3.2431395E-09    2.3536044E+06
   -6.10   700.000    3.887E+00    2.3867942E+06    2.0334343E-09    2.4919118E-09    2.3867942E+06    3.3512395E-09    2.3867942E+06
   -6.09   700.000    3.866E+00    2.4178473E+06    2.1558534E-09    2.6049267E-09    2.4178473E+06    3.4646171E-09    2.4178473E+06
   -6.08   700.000    3.845E+00    2.4464734E+06    2.2736185E-09    2.7125730E-09    2.4464734E+06    3.5831249E-09    2.4464734E+06
   -6.07   700.000    3.825E+00    2.4724299E+06    2.3843980E-09    2.8132893E-09    2.4724299E+06    3.7072636E-09    2.4724299E+06
   -6.06   700.000    3.803E+00    2.4955246E+06    2.4861449E-09    2.9057363E-09    2.4955246E+06    3.8382428E-09    2.4955246E+06
   -6.05   700.000    3.782E+00    2.5156295E+06    2.5772624E-09    2.9889182E-09    2.5156295E+06    3.9780128E-09    2.5156295E+06
   -6.04   700.000    3.761E+00    2.5327051E+06    2.6567667E-09    3.0623160E-09    2.5327051E+06    4.1292515E-09    2.5327052E+06
   -6.03   700.000    3.739E+00    2.5468326E+06    2.7244223E-09    3.1260095E-09    2.5468326E+06    4.2952974E-09    2.5468326E+06
   -6.02   700.000    3.717E+00    2.5582454E+06    2.7808321E-09    3.1807688E-09    2.5582454E+06    4.4800238E-09    2.5582454E+06
   -6.01   700.000    3.696E+00    2.5673562E+06    2.8274710E-09    3.2281018E-09    2.5673562E+06    4.6876617E-09    2.5673562E+06
   -6.00   700.000    3.674E+00    2.5747688E+06    2.8666597E-09    3.2702513E-09    2.5747688E+06    4.9225785E-09    2.5747688E+06
   -5.99   700.000    3.652E+00    2.5812685E+06    2.9014832E-09    3.3101409E-09    2.5812685E+06    5.1890298E-09    2.5812685E+06
   -5.98   700.000    3.630E+00    2.5877850E+06    2.9356646E-09    3.3512772E-09    2.5877850E+06    5.4908967E-09    2.5877850E+06
   -5.97   700.000    3.608E+00    2.5953254E+06    2.9734091E-09    3.3976148E-09    2.5953254E+06    5.8314293E-09    2.5953255E+06
   -5.96   700.000    3.586E+00    2.6048818E+06    3.0192326E-09    3.4533990E-09    2.6048818E+06    6.2130152E-09    2.6048819E+06
   -5.95   700.000    3.564E+00    2.6173212E+06    3.0777909E-09    3.5229955E-09    2.6173212E+06    6.6369963E-09    2.6173212E+06
   -5.94   700.000    3.542E+00    2.6332743E+06    3.1537175E-09    3.6107196E-09    2.6332743E+06    7.1035544E-09    2.6332743E+06
   -5.93   700.000    3.520E+00    2.6530393E+06    3.2514728E-09    3.7206690E-09    2.6530393E+06    7.6116801E-09    2.6530393E+06
   -5.92   700.000    3.498E+00    2.6765167E+06    3.3751960E-09    3.8565593E-09    2.6765167E+06    8.1592295E-09    2.6765168E+06
   -5.91   700.000    3.475E+00    2.7031877E+06    3.5285461E-09    4.0215541E-09    2.7031877E+06    8.7430568E-09    2.7031878E+06
   -5.90   700.000    3.452E+00    2.7321391E+06    3.7145141E-09    4.2180789E-09    2.7321391E+06    9.3591936E-09    2.7321392E+06
   -5.89   700.000    3.430E+00    2.7621337E+06    3.9351895E-09    4.4476065E-09    2.7621337E+06    1.0003030E-08    2.7621338E+06
   -5.88   700.000    3.407E+00    2.7917155E+06    4.1914787E-09    4.7104104E-09    2.7917155E+06    1.0669446E-08    2.7917156E+06
   -5.87   700.000    3.383E+00    2.8193354E+06    4.4827850E-09    5.0052946E-09    2.8193354E+06    1.1352845E-08    2.8193355E+06
   -5.86   700.000    3.360E+00    2.8434828E+06    4.8066832E-09    5.3293226E-09    2.8434828E+06    1.2047073E-08    2.8434829E+06
   -5.85   700.000    3.336E+00    2.8628076E+06    5.1586374E-09    5.6775895E-09    2.8628076E+06    1.2745228E-08    2.8628077E+06
   -5.84   700.000    3.313E+00    2.8762224E+06    5.5318282E-09    6.0430897E-09    2.8762224E+06    1.3439423E-08    2.8762226E+06
   -5.83   700.000    3.289E+00    2.8829779E+06    5.9171530E-09    6.4167414E-09    2.8829779E+06    1.4120610E-08    2.8829782E+06
   -5.82   700.000    3.265E+00    2.8827100E+06    6.3034564E-09    6.7876193E-09    2.8827100E+06    1.4778556E-08    2.8827103E+06
   -5.81   700.000    3.241E+00    2.8754586E+06    6.6780208E-09    7.1434288E-09    2.8754586E+06    1.5402104E-08    2.8754589E+06
   -5.80   700.000    3.217E+00    2.8616602E+06    7.0273117E-09    7.4712195E-09    2.8616602E+06    1.5979745E-08    2.8616605E+06
   -5.79   700.000    3.193E+00    2.8421156E+06    7.3379288E-09    7.7582953E-09    2.8421156E+06    1.6500500E-08    2.8421160E+06
   -5.78   700.000    3.168E+00    2.8179331E+06    7.5976695E-09    7.9932362E-09    2.8179331E+06    1.6954986E-08    2.8179336E+06
   -5.77   700.000    3.144E+00    2.7904480E+06    7.7965783E-09    8.1669062E-09    2.7904480E+06    1.7336496E-08    2.7904485E+06
   -5.76   700.000    3.119E+00    2.7611211E+06    7.9278411E-09    8.2733133E-09    2.7611211E+06    1.7641871E-08    2.7611218E+06
   -5.75   700.000    3.095E+00    2.7314224E+06    7.9883954E-09    8.3101910E-09    2.7314224E+06    1.7871986E-08    2.7314232E+06
   -5.74   700.000    3.070E+00    2.7027098E+06    7.9791693E-09    8.2792165E-09    2.7027098E+06    1.8031725E-08    2.7027107E+06
   -5.73   700.000    3.044E+00    2.6761172E+06    7.9049273E-09    8.1858416E-09    2.6761172E+06    1.8129444E-08    2.6761183E+06
   -5.72   700.000    3.019E+00    2.6524675E+06    7.7737684E-09    8.0387835E-09    2.6524675E+06    1.8176050E-08    2.6524688E+06
   -5.71   700.000    2.992E+00    2.6322234E+06    7.5963807E-09    7.8492765E-09    2.6322234E+06    1.8183874E-08    2.6322250E+06
   -5.70   700.000    2.966E+00    2.6154846E+06    7.3851828E-09    7.6302137E-09    2.6154846E+06    1.8165564E-08    2.6154865E+06
   -5.69   700.000    2.938E+00    2.6020317E+06    7.1534746E-09    7.3952982E-09    2.6020317E+06    1.8133195E-08    2.6020339E+06
   -5.68   700.000    2.909E+00    2.5914084E+06    6.9146815E-09    7.1582850E-09    2.5914084E+06    1.8097676E-08    2.5914109E+06
   -5.67   700.000    2.880E+00    2.5830276E+06    6.6817253E-09    6.9323421E-09    2.5830276E+06    1.8068473E-08    2.5830306E+06
   -5.66   700.000    2.849E+00    2.5762817E+06    6.4665069E-09    6.7295175E-09    2.5762817E+06    1.8053553E-08    2.5762852E+06
   -5.65   700.000    2.817E+00    2.5706374E+06    6.2794619E-09    6.5602706E-09    2.5706374E+06    1.8059430E-08    2.5706416E+06
   -5.64   700.000    2.784E+00    2.5657005E+06    6.1291514E-09    6.4330341E-09    2.5657005E+06    1.8091199E-08    2.5657054E+06
   -5.63   700.000    2.749E+00    2.5612416E+06    6.0218713E-09    6.3537962E-09    2.5612416E+06    1.8152483E-08    2.5612474E+06
   -5.62   700.000    2.712E+00    2.5571815E+06    5.9613028E-09    6.3257267E-09    2.5571815E+06    1.8245288E-08    2.5571884E+06
   -5.61   700.000    2.674E+00    2.5535448E+06    5.9482497E-09    6.3489027E-09    2.5535448E+06    1.8369820E-08    2.5535529E+06
   -5.60   700.000    2.633E+00    2.5503922E+06    5.9805277E-09    6.4201982E-09    2.5503922E+06    1.8524340E-08    2.5504018E+06
   -5.59   700.000    2.590E+00    2.5477490E+06    6.0530541E-09    6.5333940E-09    2.5477490E+06    1.8705132E-08    2.5477603E+06
   -5.58   700.000    2.546E+00    2.5455431E+06    6.1581663E-09    6.6795345E-09    2.5455431E+06    1.8906638E-08    2.5455565E+06
   -5.57   700.000    2.499E+00    2.5435658E+06    6.2861545E-09    6.8475181E-09    2.5435658E+06    1.9121773E-08    2.5435816E+06
   -5.56   700.000    2.450E+00    2.5414617E+06    6.4259635E-09    7.0248733E-09    2.5414617E+06    1.9342376E-08    2.5414803E+06
   -5.55   700.000    2.399E+00    2.5387494E+06    6.5659931E-09    7.1986449E-09    2.5387494E+06    1.9559748E-08    2.5387713E+06
   -5.54   700.000    2.346E+00    2.5348676E+06    6.6949181E-09    7.3563028E-09    2.5348676E+06    1.9765206E-08    2.5348935E+06
   -5.53   700.000    2.291E+00    2.5292364E+06    6.8024512E-09    7.4865877E-09    2.5292364E+06    1.9950572E-08    2.5292670E+06
   -5.52   700.000    2.234E+00    2.5213208E+06    6.8799824E-09    7.5802168E-09    2.5213208E+06    2.0108547E-08    2.5213568E+06
   -5.51   700.000    2.176E+00    2.5106848E+06    6.9210462E-09    7.6303931E-09    2.5106848E+06    2.0232932E-08    2.5107272E+06
   -5.50   700.000    2.116E+00    2.4970260E+06    6.9215843E-09    7.6330825E-09    2.4970260E+06    2.0318678E-08    2.4970760E+06
   -5.49   700.000    2.056E+00    2.4801892E+06    6.8799959E-09    7.5870507E-09    2.4801892E+06    2.0361784E-08    2.4802481E+06
   -5.48   700.000    1.995E+00    2.4601590E+06    6.7969902E-09    7.4936785E-09    2.4601590E+06    2.0359098E-08    2.4602283E+06
   -5.47   700.000    1.933E+00    2.4370385E+06    6.6752787E-09    7.3566004E-09    2.4370385E+06    2.0308094E-08    2.4371201E+06
   -5.46   700.000    1.871E+00    2.4110220E+06    6.5191611E-09    7.1812238E-09    2.4110220E+06    2.0206691E-08    2.4111181E+06
   -5.45   700.000    1.809E+00    2.3823663E+06    6.3340634E-09    6.9741957E-09    2.3823663E+06    2.0053207E-08    2.3824794E+06
   -5.44   700.000    1.747E+00    2.3513660E+06    6.1260806E-09    6.7428716E-09    2.3513660E+06    1.9846466E-08    2.3514989E+06
   -5.43   700.000    1.686E+00    2.3183316E+06    5.9015634E-09    6.4948281E-09    2.3183316E+06    1.9586059E-08    2.3184876E+06
   -5.42   700.000    1.625E+00    2.2835720E+06    5.6667669E-09    6.2374445E-09    2.2835720E+06    1.9272702E-08    2.2837551E+06
   -5.41   700.000    1.565E+00    2.2473788E+06    5.4275657E-09    5.9775587E-09    2.2473788E+06    1.8908602E-08    2.2475934E+06
   -5.40   700.000    1.505E+00    2.2100127E+06    5.1892296E-09    5.7211980E-09    2.2100127E+06    1.8497732E-08    2.2102640E+06
   -5.39   700.000    1.447E+00    2.1716926E+06    4.9562540E-09    5.4733822E-09    2.1716926E+06    1.8045931E-08    2.1719866E+06
   -5.38   700.000    1.390E+00    2.1325884E+06    4.7322393E-09    5.2379958E-09    2.1325884E+06    1.7560756E-08    2.1329316E+06
   -5.37   700.000    1.334E+00    2.0928173E+06    4.5198242E-09    5.0177325E-09    2.0928173E+06    1.7051088E-08    2.0932174E+06
   -5.36   700.000    1.278E+00    2.0524461E+06    4.3206748E-09    4.8141123E-09    2.0524461E+06    1.6526521E-08    2.0529117E+06
   -5.35   700.000    1.224E+00    2.0114965E+06    4.1355345E-09    4.6275688E-09    2.0114965E+06    1.5996603E-08    2.0120371E+06
   -5.34   700.000    1.171E+00    1.9699533E+06    3.9643283E-09    4.4575974E-09    1.9699533E+06    1.5470028E-08    1.9705795E+06
   -5.33   700.000    1.120E+00    1.9277734E+06    3.8063135E-09    4.3029482E-09    1.9277734E+06    1.4953889E-08    1.9284967E+06
   -5.32   700.000    1.069E+00    1.8848951E+06    3.6602577E-09    4.1618439E-09    1.8848951E+06    1.4453076E-08    1.8857280E+06
   -5.31   700.000    1.020E+00    1.8412458E+06    3.5246278E-09    4.0322014E-09    1.8412458E+06    1.3969910E-08    1.8422020E+06
   -5.30   700.000    9.723E-01    1.7967515E+06    3.3977712E-09    3.9118398E-09    1.7967515E+06    1.3504067E-08    1.7978451E+06
   -5.29   700.000    9.257E-01    1.7513449E+06    3.2780767E-09    3.7986615E-09    1.7513449E+06    1.3052809E-08    1.7525911E+06
   -5.28   700.000    8.806E-01    1.7049762E+06    3.1641050E-09    3.6907969E-09    1.7049762E+06    1.2611519E-08    1.7063905E+06
   -5.27   700.000    8.369E-01    1.6576241E+06    3.0546819E-09    3.5867064E-09    1.6576241E+06    1.2174483E-08    1.6592224E+06
   -5.26   700.000    7.946E-01    1.6093054E+06    2.9489491E-09    3.4852345E-09    1.6093054E+06    1.1735810E-08    1.6111038E+06
   -5.25   700.000    7.538E-01    1.5600831E+06    2.8463695E-09    3.3856133E-09    1.5600831E+06    1.1290368E-08    1.5620974E+06
   -5.24   700.000    7.145E-01    1.5100672E+06    2.7466863E-09    3.2874159E-09    1.5100672E+06    1.0834586E-08    1.5123131E+06
   -5.23   700.000    6.767E-01    1.4594102E+06    2.6498420E-09    3.1904660E-09    1.4594102E+06    1.0366985E-08    1.4619026E+06
   -5.22   700.000    6.404E-01    1.4082945E+06    2.5558693E-09    3.0947186E-09    1.4082945E+06    9.8883628E-09    1.4110477E+06
   -5.21   700.000    6.056E-01    1.3569152E+06    2.4647751E-09    3.0001341E-09    1.3569152E+06    9.4016204E-09    1.3599425E+06
   -5.20   700.000    5.723E-01    1.3054612E+06    2.3764409E-09    2.9065722E-09    1.3054612E+06    8.9112800E-09    1.3087747E+06
   -5.19   700.000    5.404E-01    1.2540985E+06    2.2905624E-09    2.8137276E-09    1.2540985E+06    8.4228229E-09    1.2577093E+06
   -5.18   700.000    5.100E-01    1.2029603E+06    2.2066434E-09    2.7211253E-09    1.2029603E+06    7.9419756E-09    1.2068780E+06
   -5.17   700.000    4.808E-01    1.1521444E+06    2.1240476E-09    2.6281754E-09    1.1521444E+06    7.4740774E-09    1.1563773E+06
   -5.16   700.000    4.530E-01    1.1017192E+06    2.0420977E-09    2.5342772E-09    1.1017192E+06    7.0236182E-09    1.1062739E+06
   -5.15   700.000    4.265E-01    1.0517344E+06    1.9602000E-09    2.4389473E-09    1.0517344E+06    6.5939869E-09    1.0566159E+06
   -5.14   700.000    4.011E-01    1.0022353E+06    1.8779682E-09    2.3419441E-09    1.0022353E+06    6.1874224E-09    1.0074465E+06
   -5.13   700.000    3.770E-01    9.5327513E+05    1.7953205E-09    2.2433620E-09    9.5327513E+05    5.8051206E-09    9.5881689E+05
   -5.12   700.000    3.539E-01    9.0492489E+05    1.7125295E-09    2.1436751E-09    9.0492489E+05    5.4474361E-09    9.1079547E+05
   -5.11   700.000    3.319E-01    8.5727819E+05    1.6302173E-09    2.0437234E-09    8.5727819E+05    5.1141122E-09    8.6347303E+05
   -5.10   700.000    3.110E-01    8.1045125E+05    1.5492971E-09    1.9446439E-09    8.1045125E+05    4.8044868E-09    8.1696269E+05
   -5.09   700.000    2.910E-01    7.6457830E+05    1.4708721E-09    1.8477590E-09    7.6457830E+05    4.5176396E-09    7.7139540E+05
   -5.08   700.000    2.720E-01    7.1980328E+05    1.3961091E-09    1.7544399E-09    7.1980328E+05    4.2524691E-09    7.2691169E+05
   -5.07   700.000    2.538E-01    6.7626889E+05    1.3261034E-09    1.6659625E-09    6.7626889E+05    4.0077068E-09    6.8365080E+05
   -5.06   700.000    2.365E-01    6.3410459E+05    1.2617521E-09    1.5833734E-09    6.3410459E+05    3.7818894E-09    6.4173869E+05
   -5.05   700.000    2.201E-01    5.9341532E+05    1.2036497E-09    1.5073805E-09    5.9341532E+05    3.5733185E-09    6.0127674E+05
   -5.04   700.000    2.044E-01    5.5427282E+05    1.1520147E-09    1.4382779E-09    5.5427282E+05    3.3800370E-09    5.6233301E+05
   -5.03   700.000    1.894E-01    5.1671127E+05    1.1066548E-09    1.3759122E-09    5.1671127E+05    3.1998430E-09    5.2493792E+05
   -5.02   700.000    1.751E-01    4.8072815E+05    1.0669727E-09    1.3196934E-09    4.8072815E+05    3.0303556E-09    4.8908515E+05
   -5.01   700.000    1.616E-01    4.4629031E+05    1.0320109E-09    1.2686487E-09    4.4629031E+05    2.8691297E-09    4.5473789E+05
   -5.00   700.000    1.487E-01    4.1334415E+05    1.0005330E-09    1.2215131E-09    4.1334415E+05    2.7138073E-09    4.2183915E+05
   -4.99   700.000    1.364E-01    3.8182788E+05    9.7113171E-10    1.1768491E-09    3.8182788E+05    2.5622808E-09    3.9032429E+05
   -4.98   700.000    1.248E-01    3.5168363E+05    9.4235240E-10    1.1331803E-09    3.5168363E+05    2.4128440E-09    3.6013324E+05
   -4.97   700.000    1.139E-01    3.2286725E+05    9.1282056E-10    1.0891260E-09    3.2286725E+05    2.2643036E-09    3.3122048E+05
   -4.96   700.000    1.035E-01    2.9535437E+05    8.8135881E-10    1.0435230E-09    2.9535437E+05    2.1160370E-09    3.0356117E+05
   -4.95   700.000    9.376E-02    2.6914217E+05    8.4708189E-10    9.9552015E-10    2.6914217E+05    1.9679889E-09    2.7715303E+05
   -4.94   700.000    8.463E-02    2.4424717E+05    8.0945969E-10    9.4463901E-10    2.4424717E+05    1.8206120E-09    2.5201411E+05
   -4.93   700.000    7.611E-02    2.2069985E+05    7.6834246E-10    8.9079294E-10    2.2069985E+05    1.6747657E-09    2.2817760E+05
   -4.92   700.000    6.819E-02    1.9853767E+05    7.2394650E-10    8.3426610E-10    1.9853767E+05    1.5315875E-09    2.0568484E+05
   -4.91   700.000    6.086E-02    1.7779747E+05    6.7680430E-10    7.7565635E-10    1.7779747E+05    1.3923575E-09    1.8457771E+05
   -4.90   700.000    5.411E-02    1.5850856E+05    6.2768757E-10    7.1579207E-10    1.5850856E+05    1.2583695E-09    1.6489174E+05
   -4.89   700.000    4.793E-02    1.4068725E+05    5.7751526E-10    6.5563542E-10    1.4068725E+05    1.1308223E-09    1.4665033E+05
   -4.88   700.000    4.230E-02    1.2433314E+05    5.2725944E-10    5.9618534E-10    1.2433314E+05    1.0107368E-09    1.2986082E+05
   -4.87   700.000    3.720E-02    1.0942738E+05    4.7786098E-10    5.3839219E-10    1.0942738E+05    8.9890347E-10    1.1451238E+05
   -4.86   700.000    3.259E-02    9.5932735E+04    4.3016332E-10    4.8309207E-10    9.5932735E+04    7.9585847E-10    1.0057563E+05
   -4.85   700.000    2.846E-02    8.3795048E+04    3.8486842E-10    4.3096458E-10    8.3795048E+04    7.0188508E-10    8.8003748E+04
   -4.84   700.000    2.478E-02    7.2945806E+04    3.4251517E-10    3.8251378E-10    7.2945806E+04    6.1703459E-10    7.6734675E+04
   -4.83   700.000    2.150E-02    6.3305309E+04    3.0347701E-10    3.3806881E-10    6.3305309E+04    5.4116052E-10    6.6694082E+04
   -4.82   700.000    1.861E-02    5.4786102E+04    2.6797429E-10    2.9779921E-10    5.4786102E+04    4.7396004E-10    5.7798652E+04
   -4.81   700.000    1.607E-02    4.7296322E+04    2.3609598E-10    2.6173942E-10    4.7296322E+04    4.1501741E-10    4.9959409E+04
   -4.80   700.000    1.383E-02    4.0742746E+04    2.0782619E-10    2.2981765E-10    4.0742746E+04    3.6384571E-10    4.3084834E+04
   -4.79   700.000    1.189E-02    3.5033389E+04    1.8307154E-10    2.0188524E-10    3.5033389E+04    3.1992423E-10    3.7083584E+04
   -4.78   700.000    1.019E-02    3.0079576E+04    1.6168715E-10    1.7774404E-10    3.0079576E+04    2.8273028E-10    3.1866742E+04
   -4.77   700.000    8.722E-03    2.5797491E+04    1.4349944E-10    1.5717022E-10    2.5797491E+04    2.5176515E-10    2.7349548E+04
   -4.76   700.000    7.450E-03    2.2109237E+04    1.2832529E-10    1.3993407E-10    2.2109237E+04    2.2657448E-10    2.3452642E+04
   -4.75   700.000    6.351E-03    1.8943464E+04    1.1598749E-10    1.2581576E-10    1.8943464E+04    2.0676385E-10    2.0102866E+04
   -4.74   700.000    5.404E-03    1.6235654E+04    1.0632691E-10    1.1461750E-10    1.6235654E+04    1.9201051E-10    1.7233688E+04
   -4.73   700.000    4.589E-03    1.3928128E+04    9.9211755E-11    1.0617283E-10    1.3928128E+04    1.8207239E-10    1.4785329E+04
   -4.72   700.000    3.887E-03    1.1969860E+04    9.4544870E-11    1.0035355E-10    1.1969860E+04    1.7679515E-10    1.2704669E+04
   -4.71   700.000    3.284E-03    1.0316160E+04    9.2269358E-11    9.7075093E-11    1.0316160E+04    1.7611840E-10    1.0944988E+04
   -4.70   700.000    2.763E-03    8.9282670E+03    9.2373347E-11    9.6300956E-11    8.9282670E+03    1.8008163E-10    9.4656170E+03
   -4.69   700.000    2.314E-03    7.7729158E+03    9.4894261E-11    9.8046554E-11    7.7729158E+03    1.8883060E-10    8.2315195E+03
   -4.68   700.000    1.926E-03    6.8218911E+03    9.9923046E-11    1.0238309E-10    6.8218911E+03    2.0262478E-10    7.2128667E+03
   -4.67   700.000    1.587E-03    6.0516014E+03    1.0760867E-10    1.0944167E-10    6.0516014E+03    2.2184612E-10    6.3846140E+03
   -4.66   700.000    1.291E-03    5.4426879E+03    1.1816318E-10    1.1941801E-10    5.4426879E+03    2.4700955E-10    5.7261065E+03
   -4.65   700.000    1.029E-03    4.9796786E+03    1.3186744E-10    1.3257779E-10    4.9796786E+03    2.7877551E-10    5.2207262E+03
   -4.64   700.000    7.938E-04    4.6506943E+03    1.4907780E-10    1.4926303E-10    4.6506943E+03    3.1796462E-10    4.8555872E+03
   -4.63   700.000    5.803E-04    4.4472121E+03    1.7023360E-10    1.6989926E-10    4.4472121E+03    3.6557442E-10    4.6212878E+03
   -4.62   700.000    3.824E-04    4.3638865E+03    1.9586563E-10    1.9500364E-10    4.3638865E+03    4.2279822E-10    4.5117183E+03
   -4.61   700.000    1.949E-04    4.3984293E+03    2.2660533E-10    2.2519387E-10    4.3984293E+03    4.9104563E-10    4.5239293E+03
   -4.60   700.000    1.290E-05    4.5515478E+03    2.6319445E-10    2.6119757E-10    4.5515478E+03    5.7196414E-10    4.6580575E+03
   -4.59   700.000   -1.685E-04    4.8269398E+03    3.0649478E-10    3.0386172E-10    4.8269398E+03    6.6746078E-10    4.9173096E+03
   -4.58   700.000   -3.540E-04    5.2313421E+03    3.5749720E-10    3.5416146E-10    5.2313421E+03    7.7972226E-10    5.3080014E+03
   -4.57   700.000   -5.484E-04    5.7746307E+03    4.1732908E-10    4.1320717E-10    5.7746307E+03    9.1123131E-10    5.8396481E+03
   -4.56   700.000   -7.568E-04    6.4699670E+03    4.8725849E-10    4.8224850E-10    6.4699670E+03    1.0647762E-09    6.5251021E+03
   -4.55   700.000   -9.844E-04    7.3339823E+03    5.6869334E-10    5.6267332E-10    7.3339823E+03    1.2434488E-09    7.3807316E+03
   -4.54   700.000   -1.237E-03    8.3869939E+03    6.6317287E-10    6.5599905E-10    8.3869939E+03    1.4506257E-09    8.4266289E+03
   -4.53   700.000   -1.520E-03    9.6532362E+03    7.7234810E-10    7.6385305E-10    9.6532362E+03    1.6899254E-09    9.6868372E+03
   -4.52   700.000   -1.841E-03    1.1161092E+04    8.9794722E-10    8.8793811E-10    1.1161092E+04    1.9651313E-09    1.1189576E+04
   -4.51   700.000   -2.206E-03    1.2943301E+04    1.0417213E-09    1.0299783E-09    1.2943301E+04    2.2800723E-09    1.2967447E+04
   -4.50   700.000   -2.625E-03    1.5037114E+04    1.2053648E-09    1.1916403E-09    1.5037114E+04    2.6384468E-09    1.5057583E+04
   -4.49   700.000   -3.104E-03    1.7484359E+04    1.3904068E-09    1.3744245E-09    1.7484359E+04    3.0435817E-09    1.7501712E+04
   -4.48   700.000   -3.655E-03    2.0331383E+04    1.5980670E-09    1.5795229E-09    2.0331383E+04    3.4981144E-09    2.0346095E+04
   -4.47   700.000   -4.287E-03    2.3628816E+04    1.8290774E-09    1.8076421E-09    2.3628816E+04    4.0035971E-09    2.3641291E+04
   -4.46   700.000   -5.012E-03    2.7431125E+04    2.0834705E-09    2.0587924E-09    2.7431125E+04    4.5600256E-09    2.7441705E+04
   -4.45   700.000   -5.841E-03    3.1795912E+04    2.3603436E-09    2.3320557E-09    3.1795912E+04    5.1653171E-09    3.1804887E+04
   -4.44   700.000   -6.787E-03    3.6782940E+04    2.6576196E-09    2.6253477E-09    3.6782940E+04    5.8147738E-09    3.6790559E+04
   -4.43   700.000   -7.864E-03    4.2452891E+04    2.9718316E-09    2.9352054E-09    4.2452891E+04    6.5006007E-09    4.2459361E+04
   -4.42   700.000   -9.084E-03    4.8865870E+04    3.2979737E-09    3.2566409E-09    4.8865870E+04    7.2115658E-09    4.8871370E+04
   -4.41   700.000   -1.046E-02    5.6079760E+04    3.6294669E-09    3.5831087E-09    5.6079760E+04    7.9329129E-09    5.6084441E+04
   -4.40   700.000   -1.201E-02    6.4148490E+04    3.9582904E-09    3.9066386E-09    6.4148490E+04    8.6466408E-09    6.4152481E+04
   -4.39   700.000   -1.374E-02    7.3120392E+04    4.2753192E-09    4.2181730E-09    7.3120392E+04    9.3322387E-09    7.3123802E+04
   -4.38   700.000   -1.567E-02    8.3036760E+04    4.5708835E-09    4.5081246E-09    8.3036760E+04    9.9679176E-09    8.3039684E+04
   -4.37   700.000   -1.781E-02    9.3930769E+04    4.8355255E-09    4.7671293E-09    9.3930769E+04    1.0532288E-08    9.3933287E+04
   -4.36   700.000   -2.016E-02    1.0582685E+05    5.0608826E-09    4.9869249E-09    1.0582685E+05    1.1006331E-08    1.0582903E+05
   -4.35   700.000   -2.275E-02    1.1874057E+05    5.2405799E-09    5.1612366E-09    1.1874057E+05    1.1375402E-08    1.1874248E+05
   -4.34   700.000   -2.558E-02    1.3267910E+05    5.3709900E-09    5.2865298E-09    1.3267910E+05    1.1630967E-08    1.3268078E+05
   -4.33   700.000   -2.865E-02    1.4764204E+05    5.4517196E-09    5.3624900E-09    1.4764204E+05    1.1771732E-08    1.4764355E+05
   -4.32   700.000   -3.197E-02    1.6362279E+05    5.4857269E-09    5.3921341E-09    1.6362279E+05    1.1803977E-08    1.6362415E+05
   -4.31   700.000   -3.556E-02    1.8060991E+05    5.4790389E-09    5.3815229E-09    1.8060991E+05    1.1740974E-08    1.8061118E+05
   -4.30   700.000   -3.940E-02    1.9858862E+05    5.4401172E-09    5.3391255E-09    1.9858862E+05    1.1601617E-08    1.9858983E+05
   -4.29   700.000   -4.352E-02    2.1754187E+05    5.3789890E-09    5.2749494E-09    2.1754187E+05    1.1408479E-08    2.1754305E+05
   -4.28   700.000   -4.790E-02    2.3745085E+05    5.3062900E-09    5.1995865E-09    2.3745085E+05    1.1185627E-08    2.3745203E+05
   -4.27   700.000   -5.256E-02    2.5829481E+05    5.2323665E-09    5.1233197E-09    2.5829481E+05    1.0956529E-08    2.5829602E+05
   -4.26   700.000   -5.750E-02    2.8005021E+05    5.1665459E-09    5.0553997E-09    2.8005021E+05    1.0742306E-08    2.8005149E+05
   -4.25   700.000   -6.271E-02    3.0268950E+05    5.1166314E-09    5.0035461E-09    3.0268950E+05    1.0560490E-08    3.0269088E+05
   -4.24   700.000   -6.821E-02    3.2617991E+05    5.0886228E-09    4.9736744E-09    3.2617991E+05    1.0424323E-08    3.2618144E+05
   -4.23   700.000   -7.400E-02    3.5048284E+05    5.0866272E-09    4.9698094E-09    3.5048284E+05    1.0342543E-08    3.5048454E+05
   -4.22   700.000   -8.008E-02    3.7555388E+05    5.1128983E-09    4.9941247E-09    3.7555388E+05    1.0319539E-08    3.7555581E+05
   -4.21   700.000   -8.645E-02    4.0134381E+05    5.1679487E-09    5.0470496E-09    4.0134381E+05    1.0355747E-08    4.0134603E+05
   -4.20   700.000   -9.312E-02    4.2780014E+05    5.2506896E-09    5.1274012E-09    4.2780014E+05    1.0448156E-08    4.2780270E+05
   -4.19   700.000   -1.001E-01    4.5486887E+05    5.3585801E-09    5.2325243E-09    4.5486887E+05    1.0590853E-08    4.5487185E+05
   -4.18   700.000   -1.074E-01    4.8249637E+05    5.4877890E-09    5.3584456E-09    4.8249637E+05    1.0775584E-08    4.8249985E+05
   -4.17   700.000   -1.150E-01    5.1063130E+05    5.6333915E-09    5.5000697E-09    5.1063130E+05    1.0992328E-08    5.1063537E+05
   -4.16   700.000   -1.229E-01    5.3922663E+05    5.7896269E-09    5.6514443E-09    5.3922663E+05    1.1229935E-08    5.3923140E+05
   -4.15   700.000   -1.311E-01    5.6824212E+05    5.9502367E-09    5.8061177E-09    5.6824212E+05    1.1476859E-08    5.6824773E+05
   -4.14   700.000   -1.397E-01    5.9764696E+05    6.1088809E-09    5.9575838E-09    5.9764696E+05    1.1721991E-08    5.9765356E+05
   -4.13   700.000   -1.485E-01    6.2742201E+05    6.2596018E-09    6.0997800E-09    6.2742201E+05    1.1955543E-08    6.2742978E+05
   -4.12   700.000   -1.578E-01    6.5756045E+05    6.3972817E-09    6.2275793E-09    6.5756045E+05    1.2169882E-08    6.5756960E+05
   -4.11   700.000   -1.674E-01    6.8806564E+05    6.5180242E-09    6.3371960E-09    6.8806564E+05    1.2360198E-08    6.8807643E+05
   -4.10   700.000   -1.773E-01    7.1894550E+05    6.6193946E-09    6.4264371E-09    7.1894550E+05    1.2524852E-08    7.1895823E+05
   -4.09   700.000   -1.876E-01    7.5020384E+05    6.7004815E-09    6.4947562E-09    7.5020384E+05    1.2665348E-08    7.5021885E+05
   -4.08   700.000   -1.983E-01    7.8183042E+05    6.7617785E-09    6.5431093E-09    7.8183042E+05    1.2785905E-08    7.8184812E+05
   -4.07   700.000   -2.094E-01    8.1379293E+05    6.8049257E-09    6.5736566E-09    8.1379293E+05    1.2892716E-08    8.1381381E+05
   -4.06   700.000   -2.209E-01    8.4603394E+05    6.8323788E-09    6.5893849E-09    8.4603394E+05    1.2993020E-08    8.4605858E+05
   -4.05   700.000   -2.328E-01    8.7847504E+05    6.8470753E-09    6.5937285E-09    8.7847504E+05    1.3094163E-08    8.7850411E+05
   -4.04   700.000   -2.452E-01    9.1102792E+05    6.8521519E-09    6.5902496E-09    9.1102792E+05    1.3202755E-08    9.1106221E+05
   -4.03   700.000   -2.580E-01    9.4361000E+05    6.8507348E-09    6.5824069E-09    9.4361000E+05    1.3324034E-08    9.4365045E+05
   -4.02   700.000   -2.713E-01    9.7615984E+05    6.8457937E-09    6.5734026E-09    9.7615984E+05    1.3461426E-08    9.7620756E+05
   -4.01   700.000   -2.850E-01    1.0086475E+06    6.8400297E-09    6.5660819E-09    1.0086475E+06    1.3616321E-08    1.0087038E+06
   -4.00   700.000   -2.993E-01    1.0410762E+06    6.8357711E-09    6.5628507E-09    1.0410762E+06    1.3788016E-08    1.0411425E+06
   -3.99   700.000   -3.141E-01    1.0734735E+06    6.8348652E-09    6.5655955E-09    1.0734735E+06    1.3973838E-08    1.0735518E+06
   -3.98   700.000   -3.295E-01    1.1058762E+06    6.8385774E-09    6.5756073E-09    1.1058762E+06    1.4169449E-08    1.1059685E+06
   -3.97   700.000   -3.455E-01    1.1383098E+06    6.8475263E-09    6.5935321E-09    1.1383098E+06    1.4369354E-08    1.1384187E+06
   -3.96   700.000   -3.621E-01    1.1707724E+06    6.8616852E-09    6.6193730E-09    1.1707724E+06    1.4567598E-08    1.1709006E+06
   -3.95   700.000   -3.793E-01    1.2032231E+06    6.8804684E-09    6.6525608E-09    1.2032231E+06    1.4758605E-08    1.2033742E+06
   -3.94   700.000   -3.972E-01    1.2355808E+06    6.9028981E-09    6.6920939E-09    1.2355808E+06    1.4938029E-08    1.2357588E+06
   -3.93   700.000   -4.159E-01    1.2677305E+06    6.9278250E-09    6.7367256E-09    1.2677305E+06    1.5103511E-08    1.2679402E+06
   -3.92   700.000   -4.354E-01    1.2995367E+06    6.9541665E-09    6.7851727E-09    1.2995367E+06    1.5255192E-08    1.2997835E+06
   -3.91   700.000   -4.556E-01    1.3308589E+06    6.9811285E-09    6.8363182E-09    1.3308589E+06    1.5395917E-08    1.3311493E+06
   -3.90   700.000   -4.768E-01    1.3615673E+06    7.0083923E-09    6.8893951E-09    1.3615673E+06    1.5531149E-08    1.3619088E+06
   -3.89   700.000   -4.989E-01    1.3915561E+06    7.0362659E-09    6.9441530E-09    1.3915561E+06    1.5668670E-08    1.3919574E+06
   -3.88   700.000   -5.220E-01    1.4207524E+06    7.0658088E-09    7.0010141E-09    1.4207524E+06    1.5818186E-08    1.4212236E+06
   -3.87   700.000   -5.461E-01    1.4491204E+06    7.0989414E-09    7.0612258E-09    1.4491204E+06    1.5990972E-08    1.4496732E+06
   -3.86   700.000   -5.714E-01    1.4766602E+06    7.1385335E-09    7.1269978E-09    1.4766602E+06    1.6199601E-08    1.4773080E+06
   -3.85   700.000   -5.978E-01    1.5034020E+06    7.1884524E-09    7.2015978E-09    1.5034020E+06    1.6457780E-08    1.5041603E+06
   -3.84   700.000   -6.255E-01    1.5293939E+06    7.2535393E-09    7.2893681E-09    1.5293939E+06    1.6780198E-08    1.5302800E+06
   -3.83   700.000   -6.545E-01    1.5546857E+06    7.3394833E-09    7.3956274E-09    1.5546857E+06    1.7182292E-08    1.5557197E+06
   -3.82   700.000   -6.849E-01    1.5793105E+06    7.4525757E-09    7.5264370E-09    1.5793105E+06    1.7679834E-08    1.5805145E+06
   -3.81   700.000   -7.169E-01    1.6032651E+06    7.5993500E-09    7.6882361E-09    1.6032651E+06    1.8288268E-08    1.6046639E+06
   -3.80   700.000   -7.504E-01    1.6264939E+06    7.7861321E-09    7.8873729E-09    1.6264939E+06    1.9021802E-08    1.6281147E+06
   -3.79   700.000   -7.856E-01    1.6488786E+06    8.0185403E-09    8.1295729E-09    1.6488786E+06    1.9892296E-08    1.6507511E+06
   -3.78   700.000   -8.226E-01    1.6702364E+06    8.3009760E-09    8.4193935E-09    1.6702364E+06    2.0908052E-08    1.6723919E+06
   -3.77   700.000   -8.615E-01    1.6903266E+06    8.6361422E-09    8.7597066E-09    1.6903266E+06    2.2072623E-08    1.6927981E+06
   -3.76   700.000   -9.023E-01    1.7088668E+06    9.0246225E-09    9.1512474E-09    1.7088668E+06    2.3383767E-08    1.7116878E+06
   -3.75   700.000   -9.451E-01    1.7255556E+06    9.4645484E-09    9.5922630E-09    1.7255556E+06    2.4832676E-08    1.7287591E+06
   -3.74   700.000   -9.899E-01    1.7400995E+06    9.9513859E-09    1.0078291E-08    1.7400995E+06    2.6403591E-08    1.7437164E+06
   -3.73   700.000   -1.037E+00    1.7522411E+06    1.0477874E-08    1.0602100E-08    1.7522411E+06    2.8073891E-08    1.7562987E+06
   -3.72   700.000   -1.086E+00    1.7617844E+06    1.1034144E-08    1.1153829E-08    1.7617844E+06    2.9814717E-08    1.7663042E+06
   -3.71   700.000   -1.137E+00    1.7686147E+06    1.1608058E-08    1.1721329E-08    1.7686147E+06    3.1592136E-08    1.7736103E+06
   -3.70   700.000   -1.191E+00    1.7727100E+06    1.2185746E-08    1.2290741E-08    1.7727100E+06    3.3368811E-08    1.7781852E+06
   -3.69   700.000   -1.247E+00    1.7741415E+06    1.2752366E-08    1.2847255E-08    1.7741415E+06    3.5106069E-08    1.7800882E+06
   -3.68   700.000   -1.305E+00    1.7730621E+06    1.3292996E-08    1.3376030E-08    1.7730621E+06    3.6766210E-08    1.7794589E+06
   -3.67   700.000   -1.365E+00    1.7696832E+06    1.3793601E-08    1.3863176E-08    1.7696832E+06    3.8314864E-08    1.7764947E+06
   -3.66   700.000   -1.427E+00    1.7642406E+06    1.4241968E-08    1.4296683E-08    1.7642406E+06    3.9723163E-08    1.7714179E+06
   -3.65   700.000   -1.492E+00    1.7569545E+06    1.4628480E-08    1.4667212E-08    1.7569545E+06    4.0969498E-08    1.7644357E+06
   -3.64   700.000   -1.558E+00    1.7479865E+06    1.4946642E-08    1.4968613E-08    1.7479865E+06    4.2040692E-08    1.7556993E+06
   -3.63   700.000   -1.627E+00    1.7374015E+06    1.5193302E-08    1.5198138E-08    1.7374015E+06    4.2932461E-08    1.7452657E+06
   -3.62   700.000   -1.697E+00    1.7251395E+06    1.5368569E-08    1.5356354E-08    1.7251395E+06    4.3649175E-08    1.7330705E+06
   -3.61   700.000   -1.769E+00    1.7110041E+06    1.5475508E-08    1.5446812E-08    1.7110041E+06    4.4203018E-08    1.7189166E+06
   -3.60   700.000   -1.843E+00    1.6946707E+06    1.5519713E-08    1.5475599E-08    1.6946707E+06    4.4612719E-08    1.7024822E+06
   -3.59   700.000   -1.918E+00    1.6757157E+06    1.5508889E-08    1.5450889E-08    1.6757157E+06    4.4902077E-08    1.6833493E+06
   -3.58   700.000   -1.994E+00    1.6536631E+06    1.5452508E-08    1.5382572E-08    1.6536631E+06    4.5098449E-08    1.6610506E+06
   -3.57   700.000   -2.071E+00    1.6280443E+06    1.5361573E-08    1.5281987E-08    1.6280443E+06    4.5231328E-08    1.6351274E+06
   -3.56   700.000   -2.150E+00    1.5984607E+06    1.5248455E-08    1.5161733E-08    1.5984607E+06    4.5331077E-08    1.6051923E+06
   -3.55   700.000   -2.229E+00    1.5646402E+06    1.5126727E-08    1.5035496E-08    1.5646402E+06    4.5427845E-08    1.5709846E+06
   -3.54   700.000   -2.308E+00    1.5264802E+06    1.5010955E-08    1.4917832E-08    1.5264802E+06    4.5550700E-08    1.5324130E+06
   -3.53   700.000   -2.388E+00    1.4840703E+06    1.4916406E-08    1.4823880E-08    1.4840703E+06    4.5726984E-08    1.4895774E+06
   -3.52   700.000   -2.468E+00    1.4376930E+06    1.4858668E-08    1.4769003E-08    1.4376930E+06    4.5981930E-08    1.4427698E+06
   -3.51   700.000   -2.548E+00    1.3878044E+06    1.4853220E-08    1.4768376E-08    1.3878044E+06    4.6338486E-08    1.3924542E+06
   -3.50   700.000   -2.627E+00    1.3349982E+06    1.4914950E-08    1.4836529E-08    1.3349982E+06    4.6817239E-08    1.3392310E+06
   -3.49   700.000   -2.706E+00    1.2799603E+06    1.5057608E-08    1.4986828E-08    1.2799603E+06    4.7436259E-08    1.2837918E+06
   -3.48   700.000   -2.785E+00    1.2234203E+06    1.5293153E-08    1.5230843E-08    1.2234203E+06    4.8210624E-08    1.2268702E+06
   -3.47   700.000   -2.863E+00    1.1661054E+06    1.5630955E-08    1.5577572E-08    1.1661054E+06    4.9151431E-08    1.1691965E+06
   -3.46   700.000   -2.940E+00    1.1087029E+06    1.6076805E-08    1.6032469E-08    1.1087029E+06    5.0264168E-08    1.1114597E+06
   -3.45   700.000   -3.016E+00    1.0518324E+06    1.6631774E-08    1.6596309E-08    1.0518324E+06    5.1546502E-08    1.0542805E+06
   -3.44   700.000   -3.090E+00    9.9603129E+05    1.7290988E-08    1.7263985E-08    9.9603129E+05    5.2985700E-08    9.9819669E+05
   -3.43   700.000   -3.162E+00    9.4175239E+05    1.8042510E-08    1.8023379E-08    9.4175239E+05    5.4556087E-08    9.4366054E+05
   -3.42   700.000   -3.233E+00    8.8937177E+05    1.8866527E-08    1.8854563E-08    8.8937177E+05    5.6217093E-08    8.9104736E+05
   -3.41   700.000   -3.302E+00    8.3920544E+05    1.9735127E-08    1.9729568E-08    8.3920544E+05    5.7912500E-08    8.4067199E+05
   -3.40   700.000   -3.368E+00    7.9153075E+05    2.0612903E-08    2.0612984E-08    7.9153075E+05    5.9571469E-08    7.9281038E+05
   -3.39   700.000   -3.432E+00    7.4660930E+05    2.1458567E-08    2.1463561E-08    7.4660930E+05    6.1111799E-08    7.4772260E+05
   -3.38   700.000   -3.494E+00    7.0470812E+05    2.2227602E-08    2.2236854E-08    7.0470812E+05    6.2445506E-08    7.0567408E+05
   -3.37   700.000   -3.553E+00    6.6611642E+05    2.2875819E-08    2.2888773E-08    6.6611642E+05    6.3486452E-08    6.6695243E+05
   -3.36   700.000   -3.609E+00    6.3115630E+05    2.3363456E-08    2.3379660E-08    6.3115630E+05    6.4159207E-08    6.3187814E+05
   -3.35   700.000   -3.663E+00    6.0018657E+05    2.3659264E-08    2.3678384E-08    6.0018657E+05    6.4407943E-08    6.0080847E+05
   -3.34   700.000   -3.714E+00    5.7359992E+05    2.3743983E-08    2.3765795E-08    5.7359992E+05    6.4203923E-08    5.7413466E+05
   -3.33   700.000   -3.764E+00    5.5181430E+05    2.3612579E-08    2.3636968E-08    5.5181430E+05    6.3550222E-08    5.5227326E+05
   -3.32   700.000   -3.811E+00    5.3525972E+05    2.3274864E-08    2.3301822E-08    5.3525972E+05    6.2482721E-08    5.3565300E+05
   -3.31   700.000   -3.856E+00    5.2436231E+05    2.2754369E-08    2.2783988E-08    5.2436231E+05    6.1067104E-08    5.2469882E+05
   -3.30   700.000   -3.900E+00    5.1952692E+05    2.2085655E-08    2.2118124E-08    5.1952692E+05    5.9392285E-08    5.1981447E+05
   -3.29   700.000   -3.943E+00    5.2111997E+05    2.1310543E-08    2.1346147E-08    5.2111997E+05    5.7561344E-08    5.2136540E+05
   -3.28   700.000   -3.985E+00    5.2945344E+05    2.0473865E-08    2.0512980E-08    5.2945344E+05    5.5681360E-08    5.2966271E+05
   -3.27   700.000   -4.027E+00    5.4477078E+05    1.9619331E-08    1.9662426E-08    5.4477078E+05    5.3853555E-08    5.4494906E+05
   -3.26   700.000   -4.069E+00    5.6723497E+05    1.8786019E-08    1.8833656E-08    5.6723497E+05    5.2164889E-08    5.6738673E+05
   -3.25   700.000   -4.111E+00    5.9691890E+05    1.8005779E-08    1.8058614E-08    5.9691890E+05    5.0681835E-08    5.9704800E+05
   -3.24   700.000   -4.154E+00    6.3379786E+05    1.7301673E-08    1.7360461E-08    6.3379786E+05    4.9446621E-08    6.3390762E+05
   -3.23   700.000   -4.197E+00    6.7774443E+05    1.6687405E-08    1.6753007E-08    6.7774443E+05    4.8475908E-08    6.7783769E+05
   -3.22   700.000   -4.242E+00    7.2852584E+05    1.6167607E-08    1.6240996E-08    7.2852584E+05    4.7761616E-08    7.2860506E+05
   -3.21   700.000   -4.288E+00    7.8580451E+05    1.5738795E-08    1.5821058E-08    7.8580451E+05    4.7273531E-08    7.8587177E+05
   -3.20   700.000   -4.335E+00    8.4914229E+05    1.5390807E-08    1.5483141E-08    8.4914229E+05    4.6963317E-08    8.4919938E+05
   -3.19   700.000   -4.383E+00    9.1800931E+05    1.5108557E-08    1.5212255E-08    9.1800931E+05    4.6769531E-08    9.1805776E+05
   -3.18   700.000   -4.432E+00    9.9179773E+05    1.4873952E-08    1.4990365E-08    9.9179773E+05    4.6623318E-08    9.9183883E+05
   -3.17   700.000   -4.482E+00    1.0698408E+06    1.4667822E-08    1.4798303E-08    1.0698408E+06    4.6454399E-08    1.0698756E+06
   -3.16   700.000   -4.532E+00    1.1514367E+06    1.4471751E-08    1.4617571E-08    1.1514367E+06    4.6196966E-08    1.1514663E+06
   -3.15   700.000   -4.584E+00    1.2358779E+06    1.4269662E-08    1.4431899E-08    1.2358779E+06    4.5795068E-08    1.2359030E+06
   -3.14   700.000   -4.635E+00    1.3224826E+06    1.4049056E-08    1.4228476E-08    1.3224826E+06    4.5207015E-08    1.3225039E+06
   -3.13   700.000   -4.686E+00    1.4106308E+06    1.3801825E-08    1.3998746E-08    1.4106308E+06    4.4408427E-08    1.4106488E+06
   -3.12   700.000   -4.737E+00    1.4998000E+06    1.3524569E-08    1.3738741E-08    1.4998000E+06    4.3393595E-08    1.4998153E+06
   -3.11   700.000   -4.787E+00    1.5896004E+06    1.3218464E-08    1.3448972E-08    1.5896004E+06    4.2175075E-08    1.5896134E+06
   -3.10   700.000   -4.836E+00    1.6798063E+06    1.2888707E-08    1.3133916E-08    1.6798063E+06    4.0781617E-08    1.6798173E+06
   -3.09   700.000   -4.884E+00    1.7703781E+06    1.2543670E-08    1.2801218E-08    1.7703781E+06    3.9254770E-08    1.7703874E+06
   -3.08   700.000   -4.931E+00    1.8614718E+06    1.2193872E-08    1.2460724E-08    1.8614718E+06    3.7644663E-08    1.8614797E+06
   -3.07   700.000   -4.976E+00    1.9534291E+06    1.1850911E-08    1.2123467E-08    1.9534291E+06    3.6005502E-08    1.9534358E+06
   -3.06   700.000   -5.020E+00    2.0467450E+06    1.1526452E-08    1.1800705E-08    2.0467450E+06    3.4391267E-08    2.0467507E+06
   -3.05   700.000   -5.063E+00    2.1420099E+06    1.1231341E-08    1.1503067E-08    2.1420099E+06    3.2851984E-08    2.1420147E+06
   -3.04   700.000   -5.104E+00    2.2398293E+06    1.0974868E-08    1.1239844E-08    2.2398293E+06    3.1430744E-08    2.2398334E+06
   -3.03   700.000   -5.144E+00    2.3407264E+06    1.0764180E-08    1.1018400E-08    2.3407264E+06    3.0161532E-08    2.3407299E+06
   -3.02   700.000   -5.183E+00    2.4450381E+06    1.0603807E-08    1.0843692E-08    2.4450381E+06    2.9067804E-08    2.4450410E+06
   -3.01   700.000   -5.220E+00    2.5528178E+06    1.0495309E-08    1.0717885E-08    2.5528178E+06    2.8161726E-08    2.5528202E+06
   -3.00   700.000   -5.256E+00    2.6637570E+06    1.0437019E-08    1.0640064E-08    2.6637570E+06    2.7444001E-08    2.6637591E+06
   -2.99   700.000   -5.292E+00    2.7771382E+06    1.0423933E-08    1.0606079E-08    2.7771382E+06    2.6904250E-08    2.7771400E+06
   -2.98   700.000   -5.326E+00    2.8918246E+06    1.0447787E-08    1.0608573E-08    2.8918246E+06    2.6521961E-08    2.8918261E+06
   -2.97   700.000   -5.360E+00    3.0062906E+06    1.0497384E-08    1.0637255E-08    3.0062906E+06    2.6268034E-08    3.0062919E+06
   -2.96   700.000   -5.393E+00    3.1186926E+06    1.0559207E-08    1.0679469E-08    3.1186926E+06    2.6106959E-08    3.1186937E+06
   -2.95   700.000   -5.426E+00    3.2269756E+06    1.0618359E-08    1.0721081E-08    3.2269756E+06    2.5999577E-08    3.2269765E+06
   -2.94   700.000   -5.458E+00    3.3290104E+06    1.0659755E-08    1.0747639E-08    3.3290104E+06    2.5906288E-08    3.3290112E+06
   -2.93   700.000   -5.490E+00    3.4227525E+06    1.0669492E-08    1.0745707E-08    3.4227525E+06    2.5790444E-08    3.4227531E+06
   -2.92   700.000   -5.521E+00    3.5064103E+06    1.0636217E-08    1.0704213E-08    3.5064103E+06    2.5621570E-08    3.5064108E+06
   -2.91   700.000   -5.552E+00    3.5786086E+06    1.0552293E-08    1.0615614E-08    3.5786086E+06    2.5377994E-08    3.5786091E+06
   -2.90   700.000   -5.583E+00    3.6385306E+06    1.0414583E-08    1.0476680E-08    3.6385306E+06    2.5048507E-08    3.6385310E+06
   -2.89   700.000   -5.614E+00    3.6860199E+06    1.0224717E-08    1.0288769E-08    3.6860199E+06    2.4632838E-08    3.6860203E+06
   -2.88   700.000   -5.645E+00    3.7216333E+06    9.9888060E-09    1.0057556E-08    3.7216333E+06    2.4140896E-08    3.7216336E+06
   -2.87   700.000   -5.675E+00    3.7466349E+06    9.7166807E-09    9.7922976E-09    3.7466349E+06    2.3591003E-08    3.7466351E+06
   -2.86   700.000   -5.705E+00    3.7629364E+06    9.4208198E-09    9.5047766E-09    3.7629364E+06    2.3007473E-08    3.7629366E+06
   -2.85   700.000   -5.735E+00    3.7729924E+06    9.1151735E-09    9.2081567E-09    3.7729924E+06    2.2418013E-08    3.7729926E+06
   -2.84   700.000   -5.764E+00    3.7796657E+06    8.8140755E-09    8.9159239E-09    3.7796657E+06    2.1851341E-08    3.7796658E+06
   -2.83   700.000   -5.794E+00    3.7860778E+06    8.5313815E-09    8.6410630E-09    3.7860778E+06    2.1335333E-08    3.7860780E+06
   -2.82   700.000   -5.823E+00    3.7954592E+06    8.2798964E-09    8.3955248E-09    3.7954592E+06    2.0895821E-08    3.7954593E+06
   -2.81   700.000   -5.852E+00    3.8110070E+06    8.0710795E-09    8.1899736E-09    3.8110070E+06    2.0556006E-08    3.8110071E+06
   -2.80   700.000   -5.882E+00    3.8357566E+06    7.9149644E-09    8.0337488E-09    3.8357566E+06    2.0336357E-08    3.8357567E+06
   -2.79   700.000   -5.911E+00    3.8724662E+06    7.8202093E-09    7.9349517E-09    3.8724662E+06    2.0254801E-08    3.8724662E+06
   -2.78   700.000   -5.940E+00    3.9235149E+06    7.7941900E-09    7.9005710E-09    3.9235149E+06    2.0327001E-08    3.9235149E+06
   -2.77   700.000   -5.969E+00    3.9908123E+06    7.8430671E-09    7.9365759E-09    3.9908123E+06    2.0566580E-08    3.9908123E+06
   -2.76   700.000   -5.998E+00    4.0757199E+06    7.9717826E-09    8.0479323E-09    4.0757199E+06    2.0985160E-08    4.0757199E+06
   -2.75   700.000   -6.027E+00    4.1789848E+06    8.1839631E-09    8.2385193E-09    4.1789848E+06    2.1592171E-08    4.1789848E+06
   -2.74   700.000   -6.056E+00    4.3006898E+06    8.4817318E-09    8.5109450E-09    4.3006898E+06    2.2394388E-08    4.3006899E+06
   -2.73   700.000   -6.086E+00    4.4402242E+06    8.8654469E-09    8.8662791E-09    4.4402242E+06    2.3395233E-08    4.4402243E+06
   -2.72   700.000   -6.115E+00    4.5962811E+06    9.3334027E-09    9.3037309E-09    4.5962811E+06    2.4593873E-08    4.5962811E+06
   -2.71   700.000   -6.145E+00    4.7668867E+06    9.8815364E-09    9.8203174E-09    4.7668867E+06    2.5984229E-08    4.7668867E+06
   -2.70   700.000   -6.175E+00    4.9494665E+06    1.0503195E-08    1.0410572E-08    4.9494665E+06    2.7554014E-08    4.9494665E+06
   -2.69   700.000   -6.205E+00    5.1409454E+06    1.1189013E-08    1.1066349E-08    5.1409454E+06    2.9283945E-08    5.1409454E+06
   -2.68   700.000   -6.235E+00    5.3378786E+06    1.1926953E-08    1.1776778E-08    5.3378786E+06    3.1147319E-08    5.3378786E+06
   -2.67   700.000   -6.265E+00    5.5366017E+06    1.2702546E-08    1.2528419E-08    5.5366017E+06    3.3110097E-08    5.5366017E+06
   -2.66   700.000   -6.296E+00    5.7333889E+06    1.3499352E-08    1.3305641E-08    5.7333889E+06    3.5131614E-08    5.7333889E+06
   -2.65   700.000   -6.327E+00    5.9246041E+06    1.4299639E-08    1.4091249E-08    5.9246041E+06    3.7166007E-08    5.9246041E+06
   -2.64   700.000   -6.358E+00    6.1068376E+06    1.5085267E-08    1.4867331E-08    6.1068376E+06    3.9164295E-08    6.1068376E+06
   -2.63   700.000   -6.388E+00    6.2770201E+06    1.5838699E-08    1.5616284E-08    6.2770201E+06    4.1077007E-08    6.2770201E+06
   -2.62   700.000   -6.419E+00    6.4325113E+06    1.6544062E-08    1.6321907E-08    6.4325113E+06    4.2857079E-08    6.4325113E+06
   -2.61   700.000   -6.450E+00    6.5711601E+06    1.7188135E-08    1.6970461E-08    6.5711601E+06    4.4462670E-08    6.5711601E+06
   -2.60   700.000   -6.480E+00    6.6913360E+06    1.7761129E-08    1.7551518E-08    6.6913360E+06    4.5859479E-08    6.6913360E+06
   -2.59   700.000   -6.511E+00    6.7919299E+06    1.8257126E-08    1.8058476E-08    6.7919299E+06    4.7022177E-08    6.7919299E+06
   -2.58   700.000   -6.541E+00    6.8723265E+06    1.8674108E-08    1.8488644E-08    6.8723265E+06    4.7934706E-08    6.8723265E+06
   -2.57   700.000   -6.571E+00    6.9323551E+06    1.9013563E-08    1.8842868E-08    6.9323551E+06    4.8589440E-08    6.9323551E+06
   -2.56   700.000   -6.600E+00    6.9722327E+06    1.9279759E-08    1.9124804E-08    6.9722327E+06    4.8985451E-08    6.9722327E+06
   -2.55   700.000   -6.629E+00    6.9925139E+06    1.9478852E-08    1.9340003E-08    6.9925139E+06    4.9126409E-08    6.9925139E+06
   -2.54   700.000   -6.658E+00    6.9940660E+06    1.9618055E-08    1.9495035E-08    6.9940660E+06    4.9018700E-08    6.9940660E+06
   -2.53   700.000   -6.686E+00    6.9780713E+06    1.9705038E-08    1.9596858E-08    6.9780713E+06    4.8670310E-08    6.9780713E+06
   -2.52   700.000   -6.714E+00    6.9460563E+06    1.9747674E-08    1.9652542E-08    6.9460563E+06    4.8090736E-08    6.9460563E+06
   -2.51   700.000   -6.741E+00    6.8999244E+06    1.9754116E-08    1.9669348E-08    6.8999244E+06    4.7291833E-08    6.8999244E+06
   -2.50   700.000   -6.768E+00    6.8419736E+06    1.9733059E-08    1.9655018E-08    6.8419736E+06    4.6289199E-08    6.8419736E+06
   -2.49   700.000   -6.794E+00    6.7748739E+06    1.9693985E-08    1.9618089E-08    6.7748739E+06    4.5103468E-08    6.7748739E+06
   -2.48   700.000   -6.820E+00    6.7015979E+06    1.9647193E-08    1.9567985E-08    6.7015979E+06    4.3760945E-08    6.7015979E+06
   -2.47   700.000   -6.845E+00    6.6253090E+06    1.9603452E-08    1.9514763E-08    6.6253090E+06    4.2293194E-08    6.6253090E+06
   -2.46   700.000   -6.870E+00    6.5492295E+06    1.9573248E-08    1.9468439E-08    6.5492295E+06    4.0735523E-08    6.5492295E+06
   -2.45   700.000   -6.895E+00    6.4765115E+06    1.9565693E-08    1.9437957E-08    6.4765115E+06    3.9124620E-08    6.4765115E+06
   -2.44   700.000   -6.919E+00    6.4101392E+06    1.9587252E-08    1.9429952E-08    6.4101392E+06    3.7495784E-08    6.4101392E+06
   -2.43   700.000   -6.942E+00    6.3528741E+06    1.9640481E-08    1.9447487E-08    6.3528741E+06    3.5880301E-08    6.3528741E+06
   -2.42   700.000   -6.965E+00    6.3072486E+06    1.9722991E-08    1.9488978E-08    6.3072486E+06    3.4303369E-08    6.3072486E+06
   -2.41   700.000   -6.988E+00    6.2755940E+06    1.9826812E-08    1.9547493E-08    6.2755940E+06    3.2782886E-08    6.2755940E+06
   -2.40   700.000   -7.010E+00    6.2600873E+06    1.9938312E-08    1.9610569E-08    6.2600873E+06    3.1329175E-08    6.2600873E+06
   -2.39   700.000   -7.032E+00    6.2627905E+06    2.0038765E-08    1.9660674E-08    6.2627905E+06    2.9945586E-08    6.2627905E+06
   -2.38   700.000   -7.054E+00    6.2856623E+06    2.0105599E-08    1.9676335E-08    6.2856623E+06    2.8629789E-08    6.2856623E+06
   -2.37   700.000   -7.075E+00    6.3305256E+06    2.0114277E-08    1.9633920E-08    6.3305256E+06    2.7375523E-08    6.3305256E+06
   -2.36   700.000   -7.096E+00    6.3989879E+06    2.0040676E-08    1.9509930E-08    6.3989879E+06    2.6174536E-08    6.3989879E+06
   -2.35   700.000   -7.117E+00    6.4923194E+06    1.9863693E-08    1.9283550E-08    6.4923194E+06    2.5018481E-08    6.4923194E+06
   -2.34   700.000   -7.138E+00    6.6113059E+06    1.9567766E-08    1.8939143E-08    6.6113059E+06    2.3900555E-08    6.6113059E+06
   -2.33   700.000   -7.159E+00    6.7560990E+06    1.9144919E-08    1.8468317E-08    6.7560990E+06    2.2816705E-08    6.7560990E+06
   -2.32   700.000   -7.179E+00    6.9260828E+06    1.8596013E-08    1.7871205E-08    6.9260828E+06    2.1766290E-08    6.9260828E+06
   -2.31   700.000   -7.200E+00    7.1197734E+06    1.7930944E-08    1.7156750E-08    7.1197734E+06    2.0752151E-08    7.1197734E+06
   -2.30   700.000   -7.221E+00    7.3347585E+06    1.7167769E-08    1.6341928E-08    7.3347585E+06    1.9780113E-08    7.3347585E+06
   -2.29   700.000   -7.242E+00    7.5676779E+06    1.6330874E-08    1.5450039E-08    7.5676779E+06    1.8858015E-08    7.5676779E+06
   -2.28   700.000   -7.264E+00    7.8142445E+06    1.5448496E-08    1.4508367E-08    7.8142445E+06    1.7994450E-08    7.8142445E+06
   -2.27   700.000   -7.285E+00    8.0693033E+06    1.4549989E-08    1.3545590E-08    8.0693033E+06    1.7197400E-08    8.0693033E+06
   -2.26   700.000   -7.307E+00    8.3269313E+06    1.3663218E-08    1.2589313E-08    8.3269313E+06    1.6472965E-08    8.3269313E+06
   -2.25   700.000   -7.329E+00    8.5805834E+06    1.2812408E-08    1.1664025E-08    8.5805834E+06    1.5824338E-08    8.5805834E+06
   -2.24   700.000   -7.352E+00    8.8232882E+06    1.2016626E-08    1.0789660E-08    8.8232882E+06    1.5251141E-08    8.8232882E+06
   -2.23   700.000   -7.375E+00    9.0478949E+06    1.1288976E-08    9.9808050E-09    9.0478949E+06    1.4749142E-08    9.0478949E+06
   -2.22   700.000   -7.397E+00    9.2473682E+06    1.0636446E-08    9.2464994E-09    9.2473682E+06    1.4310338E-08    9.2473682E+06
   -2.21   700.000   -7.420E+00    9.4151183E+06    1.0060311E-08    8.5905039E-09    9.4151183E+06    1.3923366E-08    9.4151183E+06
   -2.20   700.000   -7.443E+00    9.5453495E+06    9.5569231E-09    8.0119069E-09    9.5453495E+06    1.3574135E-08    9.5453495E+06
   -2.19   700.000   -7.466E+00    9.6334072E+06    9.1187614E-09    7.5059361E-09    9.6334072E+06    1.3246659E-08    9.6334072E+06
   -2.18   700.000   -7.489E+00    9.6760994E+06    8.7355975E-09    7.0648799E-09    9.6760994E+06    1.2923996E-08    9.6760994E+06
   -2.17   700.000   -7.512E+00    9.6719691E+06    8.3956905E-09    6.6790520E-09    9.6719691E+06    1.2589284E-08    9.6719691E+06
   -2.16   700.000   -7.534E+00    9.6214917E+06    8.0869304E-09    6.3377502E-09    9.6214917E+06    1.2226822E-08    9.6214917E+06
   -2.15   700.000   -7.556E+00    9.5271724E+06    7.7978696E-09    6.0301677E-09    9.5271724E+06    1.1823130E-08    9.5271724E+06
   -2.14   700.000   -7.578E+00    9.3935211E+06    7.5185850E-09    5.7462085E-09    9.3935211E+06    1.1367930E-08    9.3935211E+06
   -2.13   700.000   -7.599E+00    9.2268878E+06    7.2413173E-09    5.4771493E-09    9.2268878E+06    1.0854915E-08    9.2268878E+06
   -2.12   700.000   -7.620E+00    9.0351542E+06    6.9608376E-09    5.2160947E-09    9.0351542E+06    1.0282226E-08    9.0351542E+06
   -2.11   700.000   -7.640E+00    8.8272936E+06    6.6745170E-09    4.9581816E-09    8.8272936E+06    9.6525422E-09    8.8272936E+06
   -2.10   700.000   -7.659E+00    8.6128303E+06    6.3821041E-09    4.7005276E-09    8.6128303E+06    8.9727631E-09    8.6128303E+06
   -2.09   700.000   -7.678E+00    8.4012446E+06    6.0852597E-09    4.4419493E-09    8.4012446E+06    8.2533160E-09    8.4012446E+06
   -2.08   700.000   -7.697E+00    8.2013814E+06    5.7869325E-09    4.1825200E-09    8.2013814E+06    7.5071829E-09    8.2013814E+06
   -2.07   700.000   -7.715E+00    8.0209250E+06    5.4906834E-09    3.9230554E-09    8.0209250E+06    6.7487808E-09    8.0209250E+06
   -2.06   700.000   -7.732E+00    7.8659908E+06    5.2000698E-09    3.6646265E-09    7.8659908E+06    5.9928371E-09    7.8659908E+06
   -2.05   700.000   -7.749E+00    7.7408771E+06    4.9181771E-09    3.4081791E-09    7.7408771E+06    5.2533837E-09    7.7408771E+06
   -2.04   700.000   -7.766E+00    7.6479933E+06    4.6473543E-09    3.1543148E-09    7.6479933E+06    4.5429584E-09    7.6479933E+06
   -2.03   700.000   -7.782E+00    7.5879635E+06    4.3891623E-09    2.9032456E-09    7.5879635E+06    3.8720548E-09    7.5879635E+06
   -2.02   700.000   -7.799E+00    7.5598772E+06    4.1445026E-09    2.6549009E-09    7.5598772E+06    3.2488246E-09    7.5598772E+06
   -2.01   700.000   -7.815E+00    7.5616454E+06    3.9138618E-09    2.4091335E-09    7.5616454E+06    2.6790024E-09    7.5616454E+06
   -2.00   700.000   -7.831E+00    7.5904039E+06    3.6975929E-09    2.1659578E-09    7.5904039E+06    2.1660074E-09    7.5904039E+06
   -1.99   700.000   -7.847E+00    7.6429074E+06    3.4961556E-09    1.9257534E-09    7.6429074E+06    1.7111693E-09    7.6429075E+06
   -1.98   700.000   -7.863E+00    7.7158603E+06    3.3102579E-09    1.6893835E-09    7.7158603E+06    1.3140335E-09    7.7158603E+06
   -1.97   700.000   -7.879E+00    7.8061500E+06    3.1408745E-09    1.4582054E-09    7.8061500E+06    9.7270710E-10    7.8061500E+06
   -1.96   700.000   -7.894E+00    7.9109679E+06    2.9891484E-09    1.2339773E-09    7.9109679E+06    6.8422097E-10    7.9109679E+06
   -1.95   700.000   -7.910E+00    8.0278273E+06    2.8562159E-09    1.0186934E-09    8.0278273E+06    4.4488979E-10    8.0278274E+06
   -1.94   700.000   -7.926E+00    8.1545071E+06    2.7430071E-09    8.1439240E-10    8.1545071E+06    2.5065427E-10    8.1545071E+06
   -1.93   700.000   -7.942E+00    8.2889615E+06    2.6500828E-09    6.2298476E-10    8.2889615E+06    9.7388895E-11    8.2889615E+06
   -1.92   700.000   -7.958E+00    8.4292369E+06    2.5775493E-09    4.4613720E-10    8.4292369E+06   -1.8843580E-11    8.4292370E+06
   -1.91   700.000   -7.974E+00    8.5734242E+06    2.5250746E-09    2.8523128E-10    8.5734242E+06   -1.0160799E-10    8.5734242E+06
   -1.90   700.000   -7.990E+00    8.7196578E+06    2.4919982E-09    1.4139509E-10    8.7196578E+06   -1.5399258E-10    8.7196578E+06
   -1.89   700.000   -8.006E+00    8.8661547E+06    2.4775042E-09    1.5589312E-11    8.8661547E+06   -1.7858142E-10    8.8661547E+06
   -1.88   700.000   -8.022E+00    9.0112691E+06    2.4808114E-09   -9.1280599E-11    9.0112691E+06   -1.7748515E-10    9.0112692E+06
   -1.87   700.000   -8.038E+00    9.1535344E+06    2.5013350E-09   -1.7825550E-10    9.1535344E+06   -1.5240107E-10    9.1535345E+06
   -1.86   700.000   -8.054E+00    9.2916657E+06    2.5387837E-09   -2.4423933E-10    9.2916657E+06   -1.0467014E-10    9.2916658E+06
   -1.85   700.000   -8.071E+00    9.4245093E+06    2.5931795E-09   -2.8795255E-10    9.4245093E+06   -3.5304755E-11    9.4245094E+06
   -1.84   700.000   -8.087E+00    9.5509411E+06    2.6648106E-09   -3.0792114E-10    9.5509411E+06    5.5024749E-11    9.5509413E+06
   -1.83   700.000   -8.104E+00    9.6697335E+06    2.7541460E-09   -3.0249190E-10    9.6697335E+06    1.6604030E-10    9.6697336E+06
   -1.82   700.000   -8.120E+00    9.7794220E+06    2.8617517E-09   -2.6986327E-10    9.7794220E+06    2.9792360E-10    9.7794221E+06
   -1.81   700.000   -8.137E+00    9.8782141E+06    2.9882409E-09   -2.0812514E-10    9.8782141E+06    4.5137321E-10    9.8782143E+06
   -1.80   700.000   -8.153E+00    9.9639754E+06    3.1342791E-09   -1.1530969E-10    9.9639754E+06    6.2762290E-10    9.9639757E+06
   -1.79   700.000   -8.170E+00    1.0034318E+07    3.3006402E-09    1.0537750E-11    1.0034318E+07    8.2840037E-10    1.0034318E+07
   -1.78   700.000   -8.187E+00    1.0086790E+07    3.4882935E-09    1.7125694E-10    1.0086790E+07    1.0558170E-09    1.0086791E+07
   -1.77   700.000   -8.204E+00    1.0119150E+07    3.6984821E-09    3.6843404E-10    1.0119150E+07    1.3121938E-09    1.0119150E+07
   -1.76   700.000   -8.221E+00    1.0129660E+07    3.9327545E-09    6.0323061E-10    1.0129660E+07    1.5998393E-09    1.0129661E+07
   -1.75   700.000   -8.238E+00    1.0117357E+07    4.1929152E-09    8.7619652E-10    1.0117357E+07    1.9208054E-09    1.0117358E+07
   -1.74   700.000   -8.254E+00    1.0082225E+07    4.4808797E-09    1.1870913E-09    1.0082225E+07    2.2766463E-09    1.0082226E+07
   -1.73   700.000   -8.271E+00    1.0025238E+07    4.7984342E-09    1.5347397E-09    1.0025238E+07    2.6682052E-09    1.0025238E+07
   -1.72   700.000   -8.288E+00    9.9482529E+06    5.1469265E-09    1.9169419E-09    9.9482529E+06    3.0954432E-09    9.9482538E+06
   -1.71   700.000   -8.305E+00    9.8537844E+06    5.5269227E-09    2.3304471E-09    9.8537844E+06    3.5573159E-09    9.8537855E+06
   -1.70   700.000   -8.321E+00    9.7446889E+06    5.9378745E-09    2.7709893E-09    9.7446889E+06    4.0516962E-09    9.7446902E+06
   -1.69   700.000   -8.337E+00    9.6238403E+06    6.3778421E-09    3.2333714E-09    9.6238403E+06    4.5753303E-09    9.6238418E+06
   -1.68   700.000   -8.353E+00    9.4938534E+06    6.8433078E-09    3.7115779E-09    9.4938534E+06    5.1238150E-09    9.4938553E+06
   -1.67   700.000   -8.369E+00    9.3569150E+06    7.3291072E-09    4.1988964E-09    9.3569150E+06    5.6915811E-09    9.3569171E+06
   -1.66   700.000   -8.385E+00    9.2147517E+06    7.8284842E-09    4.6880264E-09    9.2147517E+06    6.2718746E-09    9.2147542E+06
   -1.65   700.000   -8.400E+00    9.0687365E+06    8.3332675E-09    5.1711671E-09    9.0687365E+06    6.8567367E-09    9.0687395E+06
   -1.64   700.000   -8.415E+00    8.9201002E+06    8.8341501E-09    5.6400844E-09    8.9201002E+06    7.4370037E-09    8.9201038E+06
   -1.63   700.000   -8.430E+00    8.7701924E+06    9.3210545E-09    6.0861810E-09    8.7701924E+06    8.0023655E-09    8.7701966E+06
   -1.62   700.000   -8.444E+00    8.6207293E+06    9.7835718E-09    6.5006065E-09    8.6207293E+06    8.5415488E-09    8.6207343E+06
   -1.61   700.000   -8.459E+00    8.4739691E+06    1.0211468E-08    6.8744610E-09    8.4739691E+06    9.0426929E-09    8.4739749E+06
   -1.60   700.000   -8.472E+00    8.3327784E+06    1.0595258E-08    7.1991348E-09    8.3327784E+06    9.4939749E-09    8.3327853E+06
   -1.59   700.000   -8.486E+00    8.2005789E+06    1.0926833E-08    7.4668021E-09    8.2005789E+06    9.8844876E-09    8.2005870E+06
   -1.58   700.000   -8.499E+00    8.0811866E+06    1.1200103E-08    7.6710326E-09    8.0811866E+06    1.0205297E-08    8.0811962E+06
   -1.57   700.000   -8.512E+00    7.9785756E+06    1.1411562E-08    7.8074306E-09    7.9785756E+06    1.0450519E-08    7.9785869E+06
   -1.56   700.000   -8.524E+00    7.8966057E+06    1.1560682E-08    7.8741640E-09    7.8966057E+06    1.0618187E-08    7.8966190E+06
   -1.55   700.000   -8.537E+00    7.8387527E+06    1.1650008E-08    7.8722355E-09    7.8387527E+06    1.0710681E-08    7.8387684E+06
   -1.54   700.000   -8.549E+00    7.8078748E+06    1.1684866E-08    7.8053821E-09    7.8078748E+06    1.0734522E-08    7.8078933E+06
   -1.53   700.000   -8.561E+00    7.8060361E+06    1.1672680E-08    7.6795660E-09    7.8060361E+06    1.0699496E-08    7.8060580E+06
   -1.52   700.000   -8.572E+00    7.8343983E+06    1.1621969E-08    7.5021159E-09    7.8343983E+06    1.0617188E-08    7.8344242E+06
   -1.51   700.000   -8.584E+00    7.8931779E+06    1.1541168E-08    7.2806697E-09    7.8931779E+06    1.0499182E-08    7.8932084E+06
   -1.50   700.000   -8.596E+00    7.9816550E+06    1.1437497E-08    7.0221294E-09    7.9816550E+06    1.0355261E-08    7.9816910E+06
   -1.49   700.000   -8.607E+00    8.0982146E+06    1.1316074E-08    6.7318494E-09    8.0982146E+06    1.0191971E-08    8.0982571E+06
   -1.48   700.000   -8.619E+00    8.2403967E+06    1.1179449E-08    6.4132399E-09    8.2403967E+06    1.0011844E-08    8.2404468E+06
   -1.47   700.000   -8.631E+00    8.4049414E+06    1.1027649E-08    6.0678869E-09    8.4049414E+06    9.8134579E-09    8.4050006E+06
   -1.46   700.000   -8.643E+00    8.5878232E+06    1.0858734E-08    5.6961853E-09    8.5878232E+06    9.5923318E-09    8.5878930E+06
   -1.45   700.000   -8.656E+00    8.7842831E+06    1.0669767E-08    5.2983730E-09    8.7842831E+06    9.3424937E-09    8.7843655E+06
   -1.44   700.000   -8.669E+00    8.9888797E+06    1.0458018E-08    4.8757642E-09    8.9888797E+06    9.0584082E-09    8.9889769E+06
   -1.43   700.000   -8.682E+00    9.1955838E+06    1.0222175E-08    4.4319319E-09    9.1955838E+06    8.7368768E-09    9.1956985E+06
   -1.42   700.000   -8.695E+00    9.3979415E+06    9.9633601E-09    3.9735889E-09    9.3979415E+06    8.3785301E-09    9.3980768E+06
   -1.41   700.000   -8.708E+00    9.5893205E+06    9.6857536E-09    3.5109763E-09    9.5893205E+06    7.9886191E-09    9.5894800E+06
   -1.40   700.000   -8.722E+00    9.7632416E+06    9.3967492E-09    3.0576664E-09    9.7632416E+06    7.5769753E-09    9.7634298E+06
   -1.39   700.000   -8.736E+00    9.9137783E+06    9.1066343E-09    2.6298061E-09    9.9137783E+06    7.1571908E-09    9.9140003E+06
   -1.38   700.000   -8.751E+00    1.0035989E+07    8.8278841E-09    2.2449326E-09    1.0035989E+07    6.7452271E-09    1.0036250E+07
   -1.37   700.000   -8.765E+00    1.0126326E+07    8.5742056E-09    1.9205631E-09    1.0126326E+07    6.3577576E-09    1.0126634E+07
   -1.36   700.000   -8.780E+00    1.0182966E+07    8.3594840E-09    1.6727799E-09    1.0182966E+07    6.0105607E-09    1.0183330E+07
   -1.35   700.000   -8.795E+00    1.0205991E+07    8.1967626E-09    1.5150034E-09    1.0205991E+07    5.7172113E-09    1.0206420E+07
   -1.34   700.000   -8.809E+00    1.0197387E+07    8.0973488E-09    1.4570818E-09    1.0197387E+07    5.4882104E-09    1.0197892E+07
   -1.33   700.000   -8.824E+00    1.0160829E+07    8.0700941E-09    1.5047497E-09    1.0160829E+07    5.3305672E-09    1.0161424E+07
   -1.32   700.000   -8.839E+00    1.0101293E+07    8.1208637E-09    1.6594403E-09    1.0101293E+07    5.2477528E-09    1.0101993E+07
   -1.31   700.000   -8.853E+00    1.0024525E+07    8.2521854E-09    1.9183810E-09    1.0024525E+07    5.2398908E-09    1.0025349E+07
   -1.30   700.000   -8.868E+00    9.9364474E+06    8.4630603E-09    2.2748841E-09    9.9364474E+06    5.3040475E-09    9.9374169E+06
   -1.29   700.000   -8.882E+00    9.8425869E+06    8.7489172E-09    2.7187445E-09    9.8425869E+06    5.4345192E-09    9.8437264E+06
   -1.28   700.000   -8.896E+00    9.7475726E+06    9.1017001E-09    3.2366823E-09    9.7475726E+06    5.6230692E-09    9.7489111E+06
   -1.27   700.000   -8.910E+00    9.6547704E+06    9.5100881E-09    3.8128049E-09    9.6547704E+06    5.8591284E-09    9.6563413E+06
   -1.26   700.000   -8.924E+00    9.5660646E+06    9.9598633E-09    4.4291009E-09    9.5660646E+06    6.1300195E-09    9.5679064E+06
   -1.25   700.000   -8.937E+00    9.4817976E+06    1.0434448E-08    5.0660089E-09    9.4817976E+06    6.4212928E-09    9.4839545E+06
   -1.24   700.000   -8.951E+00    9.4008568E+06    1.0915634E-08    5.7031129E-09    9.4008568E+06    6.7172566E-09    9.4033793E+06
   -1.23   700.000   -8.964E+00    9.3208974E+06    1.1384521E-08    6.3200036E-09    9.3208974E+06    7.0017532E-09    9.3238428E+06
   -1.22   700.000   -8.977E+00    9.2386837E+06    1.1822632E-08    6.8973031E-09    9.2386837E+06    7.2591663E-09    9.2421165E+06
   -1.21   700.000   -8.989E+00    9.1505286E+06    1.2213145E-08    7.4177916E-09    9.1505286E+06    7.4755752E-09    9.1545212E+06
   -1.20   700.000   -9.002E+00    9.0528021E+06    1.2542123E-08    7.8675183E-09    9.0528021E+06    7.6398980E-09    9.0574342E+06
   -1.19   700.000   -9.014E+00    8.9424597E+06    1.2799583E-08    8.2367387E-09    8.9424597E+06    7.7448315E-09    8.9478187E+06
   -1.18   700.000   -9.027E+00    8.8175348E+06    1.2980249E-08    8.5205192E-09    8.8175348E+06    7.7874088E-09    8.8237148E+06
   -1.17   700.000   -9.039E+00    8.6775252E+06    1.3083862E-08    8.7188966E-09    8.6775252E+06    7.7690609E-09    8.6846259E+06
   -1.16   700.000   -9.051E+00    8.5236184E+06    1.3114991E-08    8.8365554E-09    8.5236184E+06    7.6951785E-09    8.5317432E+06
   -1.15   700.000   -9.062E+00    8.3587192E+06    1.3082383E-08    8.8820801E-09    8.3587192E+06    7.5742734E-09    8.3679727E+06
   -1.14   700.000   -9.074E+00    8.1872777E+06    1.2997956E-08    8.8669126E-09    8.1872777E+06    7.4169246E-09    8.1977621E+06
   -1.13   700.000   -9.085E+00    8.0149481E+06    1.2875621E-08    8.8041842E-09    8.0149481E+06    7.2347103E-09    8.0267597E+06
   -1.12   700.000   -9.096E+00    7.8481348E+06    1.2730079E-08    8.7075888E-09    7.8481348E+06    7.0392972E-09    7.8613593E+06
   -1.11   700.000   -9.107E+00    7.6934913E+06    1.2575769E-08    8.5904242E-09    7.6934913E+06    6.8417832E-09    7.7081996E+06
   -1.10   700.000   -9.118E+00    7.5574333E+06    1.2426040E-08    8.4648717E-09    7.5574333E+06    6.6523091E-09    7.5736775E+06
   -1.09   700.000   -9.129E+00    7.4457120E+06    1.2292598E-08    8.3415275E-09    7.4457120E+06    6.4798957E-09    7.4635230E+06
   -1.08   700.000   -9.139E+00    7.3630708E+06    1.2185190E-08    8.2291522E-09    7.3630708E+06    6.3324266E-09    7.3824577E+06
   -1.07   700.000   -9.149E+00    7.3129903E+06    1.2111465E-08    8.1345791E-09    7.3129903E+06    6.2167011E-09    7.3339420E+06
   -1.06   700.000   -9.160E+00    7.2975120E+06    1.2076936E-08    8.0627131E-09    7.2975120E+06    6.1384946E-09    7.3200029E+06
   -1.05   700.000   -9.170E+00    7.3171297E+06    1.2084966E-08    8.0165655E-09    7.3171297E+06    6.1025897E-09    7.3411273E+06
   -1.04   700.000   -9.180E+00    7.3707407E+06    1.2136740E-08    7.9972945E-09    7.3707407E+06    6.1127627E-09    7.3962163E+06
   -1.03   700.000   -9.190E+00    7.4556577E+06    1.2231214E-08    8.0042568E-09    7.4556577E+06    6.1717290E-09    7.4825983E+06
   -1.02   700.000   -9.201E+00    7.5676964E+06    1.2365117E-08    8.0351036E-09    7.5676964E+06    6.2810617E-09    7.5961170E+06
   -1.01   700.000   -9.211E+00    7.7013525E+06    1.2533057E-08    8.0859765E-09    7.7013525E+06    6.4411090E-09    7.7313060E+06
   -1.00   700.000   -9.222E+00    7.8500793E+06    1.2727815E-08    8.1518480E-09    7.8500793E+06    6.6509417E-09    7.8816638E+06
   -0.99   700.000   -9.232E+00    8.0066613E+06    1.2940881E-08    8.2270275E-09    8.0066613E+06    6.9083604E-09    8.0400226E+06
   -0.98   700.000   -9.243E+00    8.1636582E+06    1.3163194E-08    8.3058049E-09    8.1636582E+06    7.2099862E-09    8.1989869E+06
   -0.97   700.000   -9.254E+00    8.3138740E+06    1.3386011E-08    8.3831537E-09    8.3138740E+06    7.5514452E-09    8.3513972E+06
   -0.96   700.000   -9.265E+00    8.4507938E+06    1.3601769E-08    8.4553756E-09    8.4507938E+06    7.9276300E-09    8.4907607E+06
   -0.95   700.000   -9.276E+00    8.5689333E+06    1.3804765E-08    8.5205524E-09    8.5689333E+06    8.3329957E-09    8.6115965E+06
   -0.94   700.000   -9.287E+00    8.6640608E+06    1.3991526E-08    8.5786897E-09    8.6640608E+06    8.7618205E-09    8.7096534E+06
   -0.93   700.000   -9.299E+00    8.7332779E+06    1.4160757E-08    8.6314829E-09    8.7332779E+06    9.2083473E-09    8.7819887E+06
   -0.92   700.000   -9.310E+00    8.7749759E+06    1.4312888E-08    8.6817072E-09    8.7749759E+06    9.6667306E-09    8.8269238E+06
   -0.91   700.000   -9.321E+00    8.7887040E+06    1.4449262E-08    8.7323123E-09    8.7887040E+06    1.0130748E-08    8.8439152E+06
   -0.90   700.000   -9.333E+00    8.7749991E+06    1.4571158E-08    8.7853695E-09    8.7749991E+06    1.0593298E-08    8.8333892E+06
   -0.89   700.000   -9.344E+00    8.7352181E+06    1.4678801E-08    8.8410665E-09    8.7352181E+06    1.1045773E-08    8.7965821E+06
   -0.88   700.000   -9.356E+00    8.6713996E+06    1.4770600E-08    8.8969518E-09    8.6713996E+06    1.1477483E-08    8.7354128E+06
   -0.87   700.000   -9.367E+00    8.5861580E+06    1.4842743E-08    8.9476000E-09    8.5861580E+06    1.1875331E-08    8.6523888E+06
   -0.86   700.000   -9.378E+00    8.4825984E+06    1.4889270E-08    8.9847965E-09    8.4825984E+06    1.2223933E-08    8.5505341E+06
   -0.85   700.000   -9.390E+00    8.3642309E+06    1.4902608E-08    8.9982473E-09    8.3642309E+06    1.2506326E-08    8.4333139E+06
   -0.84   700.000   -9.401E+00    8.2348631E+06    1.4874491E-08    8.9767121E-09    8.2348631E+06    1.2705260E-08    8.3045352E+06
   -0.83   700.000   -9.412E+00    8.0984602E+06    1.4797072E-08    8.9093739E-09    8.0984602E+06    1.2804938E-08    8.1682093E+06
   -0.82   700.000   -9.423E+00    7.9589728E+06    1.4664043E-08    8.7872071E-09    7.9589728E+06    1.2792923E-08    8.0283779E+06
   -0.81   700.000   -9.434E+00    7.8201449E+06    1.4471522E-08    8.6041089E-09    7.8201449E+06    1.2661875E-08    7.8889140E+06
   -0.80   700.000   -9.444E+00    7.6853261E+06    1.4218575E-08    8.3576144E-09    7.6853261E+06    1.2410796E-08    7.7533238E+06
   -0.79   700.000   -9.455E+00    7.5573152E+06    1.3907305E-08    8.0491096E-09    7.5573152E+06    1.2045547E-08    7.6245788E+06
   -0.78   700.000   -9.465E+00    7.4382634E+06    1.3542546E-08    7.6835666E-09    7.4382634E+06    1.1578580E-08    7.5050060E+06
   -0.77   700.000   -9.475E+00    7.3296569E+06    1.3131282E-08    7.2689080E-09    7.3296569E+06    1.1027953E-08    7.3962601E+06
   -0.76   700.000   -9.486E+00    7.2323852E+06    1.2681942E-08    6.8151622E-09    7.2323852E+06    1.0415815E-08    7.2993827E+06
   -0.75   700.000   -9.496E+00    7.1468855E+06    1.2203733E-08    6.3335692E-09    7.1468855E+06    9.7665950E-09    7.2149393E+06
   -0.74   700.000   -9.506E+00    7.0733329E+06    1.1706090E-08    5.8357657E-09    7.0733329E+06    9.1051147E-09    7.1432048E+06
   -0.73   700.000   -9.515E+00    7.0118353E+06    1.1198310E-08    5.3331238E-09    7.0118353E+06    8.4548179E-09    7.0843540E+06
   -0.72   700.000   -9.525E+00    6.9625841E+06    1.0689336E-08    4.8362709E-09    6.9625841E+06    7.8362656E-09    7.0386085E+06
   -0.71   700.000   -9.535E+00    6.9259175E+06    1.0187667E-08    4.3547803E-09    6.9259175E+06    7.2659992E-09    7.0062973E+06
   -0.70   700.000   -9.544E+00    6.9022717E+06    9.7013097E-09    3.8970062E-09    6.9022717E+06    6.7558450E-09    6.9878042E+06
   -0.69   700.000   -9.554E+00    6.8920184E+06    9.2377323E-09    3.4700300E-09    6.8920184E+06    6.3126885E-09    6.9834032E+06
   -0.68   700.000   -9.563E+00    6.8952172E+06    8.8037747E-09    3.0796897E-09    6.8952172E+06    5.9387074E-09    6.9930098E+06
   -0.67   700.000   -9.573E+00    6.9113347E+06    8.4055132E-09    2.7306659E-09    6.9113347E+06    5.6320025E-09    7.0159009E+06
   -0.66   700.000   -9.582E+00    6.9389933E+06    8.0480957E-09    2.4265981E-09    6.9389933E+06    5.3875272E-09    7.0504701E+06
   -0.65   700.000   -9.592E+00    6.9758144E+06    7.7355881E-09    2.1702087E-09    6.9758144E+06    5.1981809E-09    7.0940799E+06
   -0.64   700.000   -9.601E+00    7.0184002E+06    7.4708824E-09    1.9634114E-09    7.0184002E+06    5.0559277E-09    7.1430604E+06
   -0.63   700.000   -9.610E+00    7.0624752E+06    7.2557085E-09    1.8073917E-09    7.0624752E+06    4.9528047E-09    7.1928711E+06
   -0.62   700.000   -9.620E+00    7.1031766E+06    7.0907729E-09    1.7026543E-09    7.1031766E+06    4.8817187E-09    7.2384155E+06
   -0.61   700.000   -9.629E+00    7.1354545E+06    6.9760194E-09    1.6490477E-09    7.1354545E+06    4.8369673E-09    7.2744663E+06
   -0.60   700.000   -9.639E+00    7.1545260E+06    6.9109725E-09    1.6457817E-09    7.1545260E+06    4.8144703E-09    7.2961402E+06
   -0.59   700.000   -9.649E+00    7.1563199E+06    6.8951010E-09    1.6914538E-09    7.1563199E+06    4.8117411E-09    7.2993575E+06
   -0.58   700.000   -9.658E+00    7.1378548E+06    6.9281240E-09    1.7840911E-09    7.1378548E+06    4.8276592E-09    7.2812253E+06
   -0.57   700.000   -9.668E+00    7.0975109E+06    7.0101863E-09    1.9212027E-09    7.0975109E+06    4.8621236E-09    7.2403031E+06
   -0.56   700.000   -9.677E+00    7.0351743E+06    7.1418538E-09    2.0998283E-09    7.0351743E+06    4.9156674E-09    7.1767324E+06
   -0.55   700.000   -9.687E+00    6.9522502E+06    7.3239123E-09    2.3165677E-09    6.9522502E+06    4.9890993E-09    7.0922268E+06
   -0.54   700.000   -9.696E+00    6.8515507E+06    7.5569928E-09    2.5675873E-09    6.8515507E+06    5.0832149E-09    6.9899339E+06
   -0.53   700.000   -9.706E+00    6.7370701E+06    7.8410797E-09    2.8486063E-09    6.7370701E+06    5.1985943E-09    6.8741833E+06
   -0.52   700.000   -9.715E+00    6.6136610E+06    8.1749731E-09    3.1548787E-09    6.6136610E+06    5.3354772E-09    6.7501381E+06
   -0.51   700.000   -9.724E+00    6.4866302E+06    8.5557869E-09    3.4811874E-09    6.4866302E+06    5.4936923E-09    6.6233708E+06
   -0.50   700.000   -9.733E+00    6.3612835E+06    8.9785522E-09    3.8218638E-09    6.3612835E+06    5.6726141E-09    6.4993910E+06
